3457 97026
611 1053
754 1246
1211 611
261 709
465 541
1572 2850
3605 2010
994 4988
1353 8919
2741 3201
6610 964
6926 259
3111 5025
9402 16628
1956 16440
1016 4851
3671 14674
4029 17492
4461 13257
2009 24013
3155 22205
8895 18883
7581 15420
12158 1314
6499 24714
12143 23541
12515 30052
17459 29802
3117 12280
11530 18426
14858 1471
16670 28826
6477 13043
4394 23257
11550 23526
5585 29626
11483 29937
7736 13934
13965 9843
22271 19799
10230 41271
10753 23965
24980 26328
24277 312
11326 18866
12616 49343
31357 14691
17448 10945
8889 22994
2039 37654
1699 20139
5645 29155
2278 10393
35882 62916
3006 43463
9187 67708
17235 29054
23859 54926
18494 8218
6019 42557
19449 59761
29561 53724
28363 7800
23884 73034
10865 66496
35441 48383
15588 39204
7215 64010
2531 32014
31895 81683
25597 76833
39480 70817
4608 50098
23578 16463
28976 78201
10745 80718
9331 33596
36219 88570
20751 60408
16382 9157
22116 29340
53862 45411
44749 94943
21313 12143
35978 67219
21601 72678
32128 2502
8843 96964
26376 48077
6827 61333
10587 6427
23948 57917
44555 41591
55984 71478
30628 105591
33313 42658
35726 38189
59506 44222
43086 2294
41227 66821
14313 35939
30966 50458
66033 67214
56818 37191
58524 91205
21000 56614
32805 35331
58453 111859
19338 52859
11196 2056
10092 121958
19743 115650
38553 18691
44602 82216
41924 54882
37056 123418
4271 87418
43027 44286
20662 100491
65558 59222
49023 58490
32537 99112
1596 107306
74572 106951
27826 109554
51059 50920
80414 134731
57345 791
39914 76619
46199 73681
41880 61037
9060 63067
12655 158379
22486 108000
77895 16208
9619 99473
51472 40251
86815 86138
65435 43659
81988 56954
55521 101834
56680 4171
14324 58585
73534 154452
58078 144604
96307 63606
5779 4472
38322 119307
40490 148022
26971 134564
46077 118932
31157 71065
35570 86504
67132 3018
58469 155221
79778 16087
104719 28908
61515 186368
19138 71491
102032 83810
328 151541
10350 18305
109211 195620
97891 48921
97686 96795
97360 83537
9263 120902
61431 118890
16474 178184
86767 9805
14291 171584
104649 49610
102391 170879
37806 208717
4995 27608
61632 2220
32868 131324
110690 214597
119274 78343
106479 155911
45491 101265
43548 125003
11890 125136
92 3357
50653 86385
71179 120788
96233 33594
471 35579
54642 199834
64700 166259
71948 3913
40704 20230
119114 129886
19672 66184
91670 42440
74187 4786
55802 34673
53666 83079
59521 25002
76754 122001
96585 133727
43487 178540
60194 167497
11439 85445
38316 234831
123691 51291
45763 197280
58816 173473
70627 112259
13080 39113
108386 255683
122924 78880
23335 124981
114230 7303
112337 26361
18915 14525
12560 83874
63872 209602
76241 165835
138258 144834
116534 18480
32692 47139
19473 80955
92051 105194
113171 168194
114604 73819
104971 190693
3242 134944
87548 197506
22977 159710
105183 77680
17986 175944
1499 265078
98249 194638
155195 245126
49887 165401
139078 197416
149239 43843
123969 118281
140016 23500
49742 175426
70805 13762
142479 27697
11871 230179
53663 276233
35741 88000
57456 10268
116885 213746
75136 105338
152242 295172
107490 297112
159211 23882
43036 52695
139444 60786
145681 99708
47330 304626
124245 70902
164495 121328
160435 314198
47752 106576
43580 295189
105664 167568
44352 218319
12542 212226
155705 44263
22379 165374
49978 276990
61807 255193
60119 162616
129026 125054
20882 289227
71243 192715
33173 327743
67892 214729
42782 197408
17287 297279
26972 95300
62910 270586
99569 216043
130354 255183
137517 73937
34385 94674
18865 304878
68177 291655
48471 238788
185545 331209
74016 24043
115723 348351
52228 342391
53785 218656
171418 178459
147497 285910
145824 89519
143921 44814
171445 230434
78498 329261
83833 262273
13673 51203
69587 166173
68773 228051
87555 337198
11177 134001
137289 74492
23288 330123
17396 84499
79769 173798
167687 106427
200118 215911
205056 356594
118064 299111
203042 355109
202952 344988
1281 170364
82491 56958
79528 11199
120983 174286
112799 74933
70560 379793
82301 11659
51414 242088
67206 154689
82615 6829
145572 43994
34854 308875
57294 342584
188565 148394
175619 71867
162964 50843
205839 81845
85566 357420
3090 232884
183651 385046
55322 98133
73287 358531
19733 59037
123950 291754
105113 277110
208400 310894
122666 230540
7450 126518
105062 65704
84942 132979
131262 78406
20108 256649
18478 385006
20357 394723
149373 295782
171967 351486
146876 110187
176562 202421
162023 282075
322 377789
13162 344781
43285 315692
172071 266755
227835 323690
201929 421560
201697 19974
225736 240154
32926 368947
143905 313872
171597 294090
206163 143139
10932 325374
240695 432066
245422 172048
68546 362158
99328 85925
66058 206793
97244 229992
29752 206662
21731 326089
221787 84760
243798 450549
183082 332546
6922 156513
37573 139521
243798 410759
119219 328475
169364 212788
159338 109478
210269 362954
201006 91235
243692 454263
224606 293316
131623 120220
102894 98451
105834 259187
155118 210094
151615 308519
33522 366795
112039 476120
113325 46857
50799 429088
252513 81385
206251 123107
36911 446239
114777 187638
234862 263705
222705 238733
116531 66062
264353 369800
93586 423820
188904 282441
82941 288154
213577 354636
134581 112971
155686 86739
120958 423599
195657 436612
118123 365661
265677 186988
126488 376727
99593 482137
79086 446846
3792 423572
173523 150048
32361 163860
222881 366532
19147 199075
225419 397280
82354 117378
179078 471935
90218 367368
166101 185933
192512 54951
47837 370277
106367 155844
122403 232897
220177 170535
49133 518445
181288 264411
98512 283586
82470 511657
66532 292388
12883 301627
91771 347997
130253 471073
178452 315410
48587 229512
59727 329613
112270 325898
179314 228198
243322 452294
16494 121878
20619 83079
253887 181587
273141 57007
83200 11310
92908 114552
273612 321110
94969 44491
32151 366191
285561 357690
81328 397408
41823 505304
41158 520150
82962 474010
225175 373266
96140 479039
164108 408707
170342 376941
57316 321943
25853 422971
196024 125616
167456 428995
221058 179336
306966 32300
249468 529748
302762 212281
256154 50223
210281 363017
66266 313387
225966 238554
229505 515347
255663 337524
60140 165746
147343 420010
317513 127820
241217 187112
151175 568519
132065 234491
307835 348727
323701 32575
93985 488410
181441 311772
201809 19264
284242 86049
166299 447279
289799 394103
178349 216541
182622 531189
133127 202489
72547 327070
325147 513328
303766 242772
323617 159630
118333 181414
82295 497940
267416 486027
294166 344679
146274 119873
279948 285286
21068 313362
270437 19476
336277 544732
338787 128187
334175 169612
61241 616947
303278 73697
96574 564844
180192 229593
250686 545465
127556 40801
292621 235238
180238 261393
132182 554528
329869 415654
98335 353046
345452 626389
225343 546111
341186 511719
202321 152590
66763 213859
276369 262228
322189 544023
41691 639489
203407 496467
189630 455884
66277 137923
262378 117504
342852 553968
354345 338091
273571 123738
254594 246270
234507 251983
111041 147554
168269 425877
322603 438847
342715 639849
230903 343058
43041 64269
52468 222646
319736 326000
254684 396851
125228 43666
94223 444225
347489 585916
305040 16525
333149 627460
181269 101536
255506 402249
296089 208868
120677 459625
170754 621865
326554 212883
210279 630849
19738 501792
167740 511957
172773 53432
69730 157064
138117 657369
93648 193043
317174 445051
134045 162172
316246 57952
101212 480889
150722 110439
23906 471028
280581 538097
261509 529065
180489 295661
281314 12032
63873 508771
95238 314257
87673 207254
169530 480050
250925 115078
178692 406143
36949 119340
220218 617514
214635 84995
154067 59394
268274 629685
314152 582182
170592 113493
381114 615162
207741 410607
148529 95482
76294 350445
113002 177200
320131 172928
117580 8802
353862 462084
211539 509180
135453 723913
122663 238871
186035 183888
104475 319580
367679 290045
267300 712204
277186 278592
396686 319192
361079 691197
404800 60965
43686 169265
149156 587373
309613 520898
310744 330458
339708 422291
248417 622273
403140 491329
170837 333932
158297 664970
184929 242879
306429 78039
394531 402778
258217 282470
61925 227415
135813 372007
222248 230541
1142 617420
278606 215636
372438 422698
91656 291864
245985 497986
13280 446207
60863 381167
124 620464
416206 445681
75998 320391
241620 361432
312275 629675
97878 716333
1330 164819
305487 348170
33061 289868
355415 688849
413416 310151
285241 639853
173922 588474
362359 219254
126393 195554
254608 478340
224664 735976
430865 467587
203973 676744
412359 575115
365689 727073
121537 428635
207183 198701
283855 392957
258551 575778
16149 699033
220009 767866
155334 386374
29630 163686
86156 7789
248365 690639
284930 327289
274714 269572
275670 53036
137047 589614
307314 626676
370259 390292
169358 179284
361067 735986
121138 276437
130394 570994
331636 788495
9311 41728
278365 523432
436461 227314
279617 232410
448999 750228
72961 151488
185072 132746
407746 132698
73497 332058
73400 584272
90272 251040
6470 91297
250847 81287
358318 781721
236946 75988
392381 73793
244390 176584
41183 231805
344612 152129
203654 802300
56680 816003
215595 384609
124284 673790
421656 143366
327390 633167
345730 235574
140009 177396
205358 82865
169075 743105
359604 721141
108771 830295
25227 252109
403419 368135
113464 687984
462902 126428
68059 102531
421374 32266
213014 222652
438792 678035
189034 391839
392701 852906
411871 392629
338159 110464
46381 554106
429410 641918
397817 839156
260542 297665
137551 389718
369450 378947
363623 539397
231134 576533
138856 628287
24361 657745
417109 211778
211091 621666
62610 776709
4140 254406
112318 410894
163623 212769
435095 710806
274376 19791
299178 778946
108626 509466
106742 327446
417934 655232
395929 337551
332070 163045
352211 712045
426496 448042
376892 41845
322994 219584
180774 854823
138268 838060
386809 244081
20402 571041
135867 509258
346963 526110
154463 60397
183580 499159
290542 784937
3153 484419
261571 12176
130794 767601
404017 328723
78416 318338
115407 722244
105592 839439
487563 894378
60838 243300
486270 842908
373782 253716
232090 426082
422951 34896
255615 872287
371818 743731
12289 365765
49347 815953
81556 602340
155267 866338
129015 112965
470654 784091
441501 35751
432721 874000
473129 308161
11350 390947
230701 346781
146801 159871
218560 697779
229343 333864
44856 740345
149325 225646
131073 304839
495940 65437
448745 658477
365321 870701
266900 691846
504801 150525
208819 404867
171648 838845
33921 440408
354810 703519
16982 668991
225793 168258
346904 327992
248275 357337
242398 421262
402768 402418
247798 839538
133638 411756
317161 897931
365108 651210
298136 443575
525873 653453
327025 909358
117139 173666
416450 17014
430501 256620
286163 247275
364510 171560
471134 650867
277329 183547
322996 206778
457436 29435
373689 62023
210506 529392
380665 959065
418530 225176
157818 743909
196238 111417
106615 945325
163233 244346
288268 300176
296986 776072
224674 972707
498029 419598
74096 963244
466754 470936
512426 636702
266113 164856
3150 77043
244714 913779
289402 391222
455450 838292
152640 590052
287884 127608
322705 527424
96274 365297
148843 95212
191493 472042
113115 302002
439337 1017817
466615 82044
105295 126659
176657 349392
24889 804231
283155 383059
567233 190251
458899 376925
191052 468963
33709 630729
429529 19873
265112 801945
346429 545228
183342 931151
531614 935221
133981 958708
107129 363132
69804 801066
381935 842805
387609 689302
192735 801427
363679 838230
222101 714673
154561 658765
155086 400257
451131 468099
274715 786611
421137 432373
210644 984665
539395 429241
108176 197072
317140 578843
429345 741457
346454 382646
54230 915859
103216 253088
190344 266589
530920 656974
301582 197833
370990 578379
34862 376552
22779 543707
583139 503229
257772 351397
236771 360209
266135 900502
442841 729813
514623 1048705
455239 441596
369054 422081
96563 474180
221655 147328
229319 930372
293783 147908
533051 850292
295011 722900
412923 488511
339678 763163
169974 192641
270520 970538
22022 890288
422454 967918
591384 903873
383509 38909
328172 795532
390264 1039561
597608 728760
5348 458047
502156 242434
594645 63665
285522 135851
405995 882895
489908 666693
203829 491830
409273 910886
321173 304183
472217 944677
114680 635902
235705 1070768
447453 347488
297191 257775
91476 691581
103985 679800
321188 381773
404313 335369
288579 866647
411974 854572
258648 242821
332197 99871
29971 864943
323884 252641
481006 257020
186119 96287
231837 9993
49679 428972
66946 619281
302145 64941
263748 766779
223398 600611
204356 603609
616077 721820
571303 117411
183372 18492
628282 531470
479393 808933
94610 624937
228876 421572
487454 224910
360694 862465
246141 194598
29454 206079
95448 963120
390860 779977
354107 787106
249098 614455
60759 1070928
275606 249778
438184 163792
573815 637365
90098 570175
560964 285294
578441 32161
281090 906964
71876 605004
542653 879798
267840 83080
103874 953386
353239 226563
202330 1132982
496122 308036
30974 968587
194948 632551
108925 42048
188957 315433
283158 164677
444487 776330
29035 925881
180971 773825
262881 384468
300508 858441
497203 466041
603926 620738
490475 315379
251140 1070967
558739 168000
81848 595708
7504 675053
148739 22164
180170 613100
205836 230156
284513 290070
459022 675164
634196 302889
132705 223549
219547 697660
127561 236356
536974 750355
481246 508031
277671 945805
308902 190925
487167 1015230
239772 563923
619765 1094841
528179 820896
519008 1172032
407058 601617
123132 965154
451794 233795
321061 1150123
333913 462109
454900 420612
102131 798940
289672 169848
149821 962259
600455 389920
164340 871131
428255 433555
303755 1122345
194805 32197
318233 777119
185048 904077
53682 29017
570557 1153065
155007 708244
92315 466265
391188 640089
406270 816590
97168 931332
435368 785533
249813 1027718
677786 16702
294263 1147396
100283 230651
666580 682923
537568 606283
185249 1158408
632303 237780
150595 1187101
385230 1094860
231005 812367
49331 893745
144622 1197334
578154 94508
76628 712307
196981 370982
461001 1241370
211050 44052
483531 1015618
697852 607088
486629 434216
516225 1221726
590866 578483
294109 942437
404802 461579
468062 222983
522470 281299
493904 114168
248739 112984
591362 351012
62798 206609
422415 649428
668667 725600
616721 560270
175225 288009
620919 489063
516064 654788
298859 135070
586548 472733
672880 247135
227669 985702
153868 446019
271367 1260548
344481 669413
257106 14934
372997 1063540
272726 128023
288915 496214
289017 517192
353235 1209062
583337 1046472
402863 1035291
571274 878033
438900 720180
206083 873555
658864 919474
3127 47820
532647 1289907
684321 210219
121087 896101
732100 1313382
63947 532886
450739 673839
614937 148433
527941 957474
222716 853919
68252 265919
254865 1316964
729926 1017499
330923 1008614
404943 800348
243924 819033
647791 1203747
300792 1193841
45609 1189857
675012 391168
119697 1078877
101265 800433
511887 792066
14869 141539
686483 188697
237355 532388
324653 420910
668520 1051826
610675 605710
22165 1031187
293593 996147
299464 508852
152332 843138
241162 1149338
670122 963679
477761 36963
735341 1285583
504172 341667
335581 1140967
752966 1133078
703390 493215
227829 870294
423792 317768
508362 1159352
757958 834116
511935 853065
215949 524881
418582 508329
214673 568994
420414 186829
610077 545377
301182 393661
721737 152202
408820 733581
73168 950269
266443 49072
453303 304605
86298 918389
504579 923251
84474 591041
628941 1342796
590438 592539
23707 1393462
409594 1363768
48577 999154
519743 845659
20941 536588
469873 847362
446108 0
225121 364480
174393 687879
66289 1383255
293130 233485
455705 230736
104341 17128
32766 1221061
18793 746422
450665 1333908
372615 8262
356965 905504
706397 1282934
608172 154137
162563 967702
460560 53777
737549 33949
153753 1366003
101207 1098454
103257 394795
128473 253572
179815 844068
694969 326962
647668 1167848
415909 919104
376400 602135
591491 1043628
489829 18694
378615 557004
639224 1046863
396161 528303
524101 360831
223308 1254408
134246 911078
431409 270121
787791 566842
49543 10921
669167 893035
186493 603013
371630 274433
418418 281832
59531 639171
248121 26094
477903 168604
49258 1038047
346605 479379
795423 685683
66656 821454
168049 669650
717234 327976
201779 670714
327055 696726
204360 464807
20022 669265
90517 1203280
135089 1144313
390167 536356
121827 1305521
437454 760058
423601 438302
32421 1242385
484012 649119
32254 152752
327446 1343918
355358 1087408
143194 222810
646729 701224
311192 147216
195167 697638
624964 943614
694229 790734
762590 70391
570705 1292210
474450 576844
314071 1435134
370448 661775
771129 675885
74762 475016
526597 914504
137402 967259
588323 1388423
79983 1172719
350299 271048
121071 415403
786889 648256
544617 687099
727002 247804
216307 243054
278557 256950
677503 669312
828733 890293
271776 542291
756133 9716
765731 1153146
52654 1087898
217757 1279810
279616 675834
149311 141965
741108 1125305
465096 1222249
147224 194331
388672 165145
812096 4038
23115 1255456
281815 10438
813076 758948
682173 1043268
512735 166633
582433 614185
589153 207908
72290 125485
116526 1380354
371292 1158746
669316 1189344
86195 984289
626964 1264528
587944 1032628
839154 1317906
576402 1231087
696086 367371
201929 376191
493160 1423971
94271 1359989
787810 1272912
770609 1231129
239194 446037
188230 1318910
177802 878091
602773 904201
492970 954744
735585 1020075
512415 677874
413616 513391
120719 31922
433732 83141
18859 229428
375785 1102269
509049 559453
179106 1152915
166781 1180323
296738 1223770
449143 162298
426111 22085
492447 412357
623701 933594
44665 976028
844412 1548588
11486 1278061
2657 782436
684957 981969
169657 115490
362099 105837
27810 1566689
317223 1381043
498629 578924
784575 868096
566429 1447133
510441 602747
746940 1011522
500936 856749
520461 560268
521622 837800
464853 1401582
832019 491454
245225 1362266
348831 1438787
13068 1277659
863800 810177
782964 114797
126763 676251
597994 1589516
715016 524579
1004 627846
184261 709850
146602 918760
333295 725783
741787 281998
889287 1464432
596162 1248360
154498 1111844
13334 261080
86014 403895
163973 293884
614141 619877
579689 1508491
70229 1300460
716471 1029278
687112 950099
129401 1134032
170327 148713
685200 282044
596720 185607
366214 973764
467881 876743
83425 994819
73952 222393
295082 1507365
528243 971531
206703 1029231
331444 93828
229240 1454327
666359 10761
399894 1582085
254386 1568598
795435 1156517
624126 933240
341022 1125145
174800 1351694
59340 418337
119254 357781
358815 507981
489532 1483913
465239 1555722
171318 1279347
808204 1506556
30794 1298857
727794 1135937
17126 1471924
242147 733290
293761 710180
764558 1347158
709716 559998
283861 442801
463293 672628
801598 1221978
711268 543660
820056 860770
577085 729427
712232 1293684
707476 84016
368240 413898
101673 799060
920082 625553
552130 1095531
780618 343221
227432 792973
240584 232107
893475 449326
387695 34962
242525 1525299
699097 376609
435553 994485
622135 720484
733338 530445
327825 1501606
667994 411474
554043 1301547
797771 467893
21493 718619
27682 616581
423569 196991
379909 1410273
521508 630577
60059 1666112
327540 1096825
915059 613332
67207 550332
806533 530591
115562 4491
400888 908962
846188 66753
280733 1132267
118249 1704530
633678 225042
529522 1685251
947656 540024
624048 1114442
951587 899368
112362 843944
194656 665201
503708 1080580
522590 692651
546439 1277899
378443 590582
432081 1691233
775303 1724277
490708 1207681
191247 476263
963314 1256115
834798 845527
819621 1189687
578835 99166
21868 36892
329542 1413883
354189 1074938
472535 10257
56203 232327
911991 193920
251268 929170
639275 1083229
652957 325255
64992 1570971
705683 716081
189424 416356
327762 256067
969655 800561
445470 164973
393491 851853
236873 110217
522581 1103762
573145 355772
397391 1399200
674966 1137520
144403 329073
565313 509154
252124 546634
355582 1401484
842422 486909
439627 143293
873546 1190010
3562 810074
34553 1497846
222112 118873
72804 1152665
163369 1141642
416798 974708
817075 1553961
419591 882877
118715 1544754
627644 50991
413876 1402232
696297 967474
946355 441942
349009 827342
869958 992244
218607 956379
540420 440182
206878 1405745
118391 438144
908578 786151
295330 707661
243563 282713
424109 186991
475801 834474
593587 1550660
646056 4771
778324 1259319
209000 938321
217497 782325
717388 985517
26182 175676
131974 39702
986709 773328
837262 1447636
591414 1630768
416075 1146519
19890 1150246
505342 1603193
661114 942678
550960 1316127
629864 1100014
286486 174666
163284 1748299
454592 1004464
547534 1251297
501364 1645255
584249 48502
627264 1781517
1016069 1751979
877672 1604324
554542 658142
321381 1801411
512616 1081466
433210 1382858
844040 1641095
717307 850817
927569 1623494
952921 1465674
595120 1153686
457149 1598046
912083 23650
719449 1562447
425705 796232
653377 1799719
222728 903155
522837 944243
463230 747344
294500 928493
791969 357905
698948 394935
690446 1468182
564703 687599
131330 1500191
597287 1546957
427326 115788
553274 80736
56321 1447002
376977 1516353
299858 1462293
335614 32123
363339 700164
440164 1378644
736478 1846583
523203 227510
850079 1779165
27361 792013
1014680 455354
788492 1559489
842707 1426962
948743 1725826
171648 874993
849767 1091982
217658 6342
892307 1750236
492034 1689644
389918 1031749
48017 289430
638431 828527
975590 1186017
548372 536847
657953 1634705
530776 1482497
304236 497457
944585 1817034
687551 66317
173129 1813254
792519 1868405
718500 712316
835344 250642
502650 1796870
842920 616445
438783 349911
70044 1785762
807487 1471677
829111 232609
670903 14278
203990 257740
947693 552385
911968 1459069
637140 1674580
407782 243757
464013 337322
475222 1197706
994903 1193946
960033 1441793
265142 441331
572898 1365899
587604 594889
399274 1482109
152709 838931
202362 234828
253020 287747
366984 533342
693029 851914
391991 920239
358402 1882520
440567 1694731
506723 286127
695316 1296458
379306 1890144
1020468 1224995
226161 215728
998942 1806384
1074148 156130
945531 1213306
6915 206650
726534 705132
175172 233793
73109 1632606
587311 413517
107035 1322322
510690 230328
280382 1302158
718328 1884710
643311 1055037
4118 1543428
536839 1202668
181503 1663419
60118 1011026
115905 93666
440647 173477
266358 502213
797592 1950531
1003118 1136806
817308 1425623
474756 876575
254013 741061
640590 1975259
1092407 543473
514624 1884209
1025950 1443629
475058 574167
786724 1963630
240198 86778
984554 1072434
630503 1708678
540677 796493
463085 742986
780322 761106
13602 1908062
348089 470546
840874 1330323
44981 816606
460584 1089076
126383 759296
1011918 1867908
989950 1742016
99564 220937
154155 176664
129652 1889627
4595 1631037
523993 389255
73299 506380
339180 1260174
19863 339385
729041 42303
533769 1396287
16066 1328776
1047034 450250
27018 466099
200313 628746
734876 1309467
3663 53619
228332 218923
792832 1688378
1125265 68944
184122 596097
1100375 2019019
462688 488168
908841 329367
855999 1386865
132401 1867188
533660 435830
316561 323664
521551 584353
1127880 1454473
240091 1650334
1104835 1126438
748130 1953999
344234 1779477
854173 418763
129660 2040695
270243 353853
673145 451795
818130 1360441
1046586 546282
656827 193118
670620 1146667
967360 2017947
76360 1227995
1033438 890952
167591 1783825
1069587 703471
246865 1166576
554670 1646676
477608 800293
140822 402711
12046 1317556
571342 767742
267015 1710550
715541 741816
422171 1792391
658793 578579
1107235 2033579
124308 1580913
1107265 336484
718331 903537
527803 1314882
852644 71531
1051638 1240132
179709 1339647
144603 226088
954941 1823584
404788 665809
130525 1563472
944774 53702
24414 222874
70139 1595662
279529 1618204
743429 1301143
1086935 1083846
885196 906346
680611 580598
260063 1029839
1139269 1581242
155343 818546
754523 1102037
618734 774425
782467 283785
976969 1394800
650351 1406556
24508 1613751
187487 91501
144936 1030265
1141893 2061775
591194 940321
660313 821551
638600 224191
899621 133104
980145 560272
377561 1562585
181334 1374065
258374 1570343
1049249 845796
1055300 1617571
801112 1701483
1090970 1444319
524477 1625798
821843 1707665
26430 61344
1174496 2005632
386568 461488
346229 1512322
466850 1310569
485378 126259
479992 406546
569087 1593791
24196 1507343
1011834 1913095
134541 1723427
661557 1629810
1086990 1601565
335059 49900
376682 835549
960961 14634
1066061 1717140
820588 765293
439258 1675268
274337 1956932
437931 1885231
494479 911953
113970 445703
667339 1922104
911081 128700
1026258 713827
151183 1184924
988290 538043
1155836 1647323
857842 882079
173676 991950
1151561 90393
588524 1133950
633187 97076
186616 1006229
430731 1615421
649783 805226
118734 1824578
100869 923226
1149841 521041
531269 1371134
815782 1566901
333306 2102537
351349 1739968
263583 1620665
468909 1303017
299235 1003774
583931 1848708
20263 1130458
654267 137029
50956 216855
356962 301362
796053 1392923
431758 1967024
628075 701768
191934 972712
1084625 587438
91966 381586
129281 816060
517141 2072507
1216555 1643827
827682 1045496
296648 2006312
1213029 2062925
1131448 242271
247817 279013
447112 1374667
1216166 466528
474489 1819899
59544 14237
71330 161327
614985 2182394
104634 54843
244566 2076816
495310 678334
1209444 246504
358644 1309763
656393 694639
517242 1820241
776986 930721
102686 366073
454494 1962285
1075628 1382634
843471 2191138
781304 1725063
399981 1193584
839260 1061946
656743 419014
271248 826530
498946 1842732
207918 774010
920437 1872296
453949 1653938
766584 1633350
1162978 2204699
217600 2156894
813282 1183995
51225 784890
176387 727369
194848 1333532
539790 1791215
1205514 639357
266257 373644
513674 334061
1136190 840615
424431 1913941
1033810 1981550
981440 310136
88794 862290
884891 596151
325600 271983
459800 588032
1239064 504760
273621 210917
624966 594910
676319 1145541
231078 1040355
197210 1669841
552081 103552
1173087 1773457
887735 1273261
98748 606813
318823 1097245
561365 1446084
325449 1830608
1053479 1545023
860311 1232096
948953 1892261
366126 2131333
183451 738695
562750 439004
850689 1518456
928043 1184787
314976 1455466
412370 1654334
753285 623558
206132 1743433
845086 1321701
992252 1102423
1226096 1189860
395719 1173499
436164 2138235
186328 1875013
1132421 1973262
25513 1528801
74641 792260
569288 1171353
495847 1287727
549115 1372993
978995 1158066
246908 2207182
410169 1956487
662798 1483956
189224 1105174
524623 53480
951893 635626
991969 2107974
977652 327659
907396 1111654
338950 1572213
148539 811142
830585 1240974
397225 1703284
724900 1910082
1246170 1278237
1237049 483636
154369 760620
1089179 1986683
1049738 4026
944289 788271
753679 1065593
54443 2230848
501094 2023681
907912 1976482
574718 1641033
155469 939429
701740 768134
957511 1810586
504288 1753
1128282 508547
780173 1477238
238983 1153530
617969 493569
960825 1342537
889687 128317
677927 1253324
1164566 1628801
1156358 1110930
36751 1536333
737272 1028993
988437 175710
936112 1149780
597445 1073891
533448 2129304
1257367 1960282
446058 315556
834839 1399806
823004 1990427
770832 1561306
84581 756840
478294 2150069
406646 2047989
600693 2235151
706595 1366031
1088703 2058152
470202 250190
609145 292376
713594 1809184
84541 2252002
276475 643027
289928 1380502
495224 1492022
1236592 45035
1216524 1275979
506322 555064
578738 1033150
522253 2202658
1034018 1497143
508758 406817
1024368 636448
1211706 2232887
960115 1775879
26248 1444878
871670 639313
1314209 957467
74696 1205521
1323657 2150907
1070243 2010327
887027 397951
52336 929717
1269811 1213446
126749 2380214
397526 566007
806929 2010434
892722 1256361
128178 1139093
1319272 270454
885375 1538414
1338918 34570
233393 1402048
1310066 187917
453024 858303
363506 321489
1030762 2424133
256307 1803072
356967 608000
1326160 1825145
471588 1671264
1068682 2180969
138909 1072396
1034585 1548727
220266 2018104
403405 2126463
500623 1908030
372980 2029073
991933 1792690
1085059 909194
358760 1127072
1195558 855917
205237 1771016
312170 439502
604071 1196441
334450 1871488
610859 1210433
1093343 1505365
184143 464758
401844 1571427
938050 1138574
137316 93238
1248668 1526818
45157 386283
124505 40119
1014248 1052248
1106541 960150
483791 2024583
730611 1675024
703025 1105917
1325574 418688
1290937 899948
348494 1600564
1193248 725312
595837 97699
472465 2156727
1269606 2107805
997065 2044861
1321509 1712590
986573 1289683
979656 213150
980165 1654490
22889 366131
928316 568462
669341 2029952
31845 2401347
1024387 1455293
693587 498011
1349431 1336031
1359854 122699
443469 1203057
824174 822829
1121621 497327
15658 2291011
291240 1208242
305054 2134307
1138213 1321255
817013 1493079
939605 2450344
501794 419762
1224357 1971484
1004926 2218256
95629 2386757
1238941 911417
1131121 1286894
815441 1545386
178994 699273
1001445 1558309
942976 1642757
1213149 1942686
602792 2375536
929153 1981545
228259 2143399
549953 212087
116566 2051867
656798 1636804
1387068 1965278
454215 1545632
72530 1268462
57263 832935
919848 2106155
1382925 2132827
84771 2330562
326640 540857
66528 2451177
409539 317910
603666 506483
1375326 1519491
814921 1499314
1041773 1802264
537508 717546
726945 24709
339605 1442924
1345359 1965304
342251 181868
332873 442692
187795 61337
686941 1438480
196320 1870938
819014 212690
862012 2531837
509416 1107011
695390 1615763
87128 903010
395479 2034984
608241 1720131
1413454 1799976
1316310 552971
977178 2044113
347343 1211149
502273 839514
1332281 2246652
360958 2419685
310350 2354637
445232 2017803
137495 1592272
40645 889012
1373602 658489
229181 1359823
154859 1201936
120428 408725
308427 466904
1162601 1668129
935923 212039
818934 624162
834908 332517
787722 1305987
525649 2101421
469651 1500094
1416331 804252
167351 493150
796365 1461435
1311687 2019026
44752 2239294
1163483 1297032
283733 200637
1374453 1054592
538 1484427
557756 1428512
39447 1846978
1194974 1711146
1026782 1073873
1340067 26156
886082 1507692
837991 2212415
178205 102430
964016 1285316
141926 1145526
1014293 1350263
1081971 2562745
1036943 1558146
137730 1925587
1308076 642144
923130 185079
161108 585877
490107 1993993
1297374 2220129
904098 1176441
1166798 2263867
1363362 1563374
1038484 2205868
1229553 530155
171123 663358
1398479 61371
1285371 2287438
1224982 1540733
742755 1894714
4645 1320198
1205120 1201217
415317 118430
414498 363105
1371258 352313
519770 1819251
709950 2427308
1454504 2507780
222358 1693092
337455 2642175
87083 1169379
986037 96608
306378 2612191
1319902 1286624
295773 2409062
1418185 425239
854146 517073
1381527 1692497
1340348 62773
574571 2556610
850792 1829935
587264 658926
364011 1510942
586174 297000
514756 356465
203966 2508656
986320 1550218
550082 2491486
1446639 2087401
1409019 1915436
390937 795891
93475 358829
1284216 2383640
1334299 1127314
1367390 876170
1023540 706950
229316 613651
1292927 1358274
719315 45819
484743 2431348
1356300 1531400
1242814 349369
1000928 392220
873130 2128897
1445120 2468790
977675 157085
1209896 590984
630705 627764
155994 2603850
856485 193479
296412 1176045
37148 2485196
1452538 291520
515010 2238990
1293865 1484465
1426571 2020573
983792 1880075
961414 2025861
699035 1921124
1134259 2572199
934997 821133
455790 175419
354731 1149107
695939 198821
928159 404129
1125995 266327
1458809 1199875
548073 2547957
682074 1858010
704270 2042451
1322205 1835658
597021 1133909
145464 2251015
805444 79236
616749 485190
499588 1425298
801658 1317171
780241 641983
497841 562259
1161479 211950
257692 1236149
606415 386511
207059 416735
1453775 63756
264048 897622
600097 737198
1418668 2517561
30984 2736034
590358 38720
1007812 2682708
1061861 445287
472394 2162911
892414 1479424
1017464 2375672
660799 1213792
1068493 548620
1478743 1133683
814026 429486
1399757 1432226
191871 207520
1127627 2486586
940383 2181959
1161222 2174373
694728 1641996
1048873 984344
321525 1813202
696779 1854430
1461163 1916596
1228806 244062
331830 2524456
586301 1408654
617689 82753
14491 588972
929569 2471770
1338339 166708
123673 98908
750526 1258160
1049063 440366
379477 2225605
488501 1613228
128628 184726
614659 1623198
1017837 111202
1357741 2693875
1427366 421242
682814 2067553
1322939 334177
1469958 1877156
1510368 2248038
837817 1673762
1374081 1565255
1442627 1966160
1192604 1629624
107818 1341600
1187451 2632296
171889 362496
170893 713739
164517 1390753
1247149 2269198
93042 752204
19818 2643644
1234252 1915535
20927 1700186
1360642 2039384
553190 2757797
872757 1581115
676927 2360795
1142671 248973
1248470 174718
490161 1956687
1132161 21419
191465 351917
537323 1172731
1047374 1880109
405000 2699704
434617 558050
513846 2540242
76986 2086483
228040 561483
276803 1115978
1072208 233250
626489 712303
698392 263167
1522150 516790
598163 1449563
1000963 392689
1372984 1586525
1038714 2008788
398620 295312
744408 4713
483423 244772
231659 797001
546289 1549871
1083992 2800360
1055683 1003191
1142478 537533
306734 2839130
1452288 2417989
682181 2289050
273465 2505336
1388878 1112795
399607 240195
280236 1159305
958717 2032562
227518 328078
961116 11790
1160156 2664065
786289 298190
106634 2445354
740466 63472
566997 1693313
876945 69518
279620 2630258
1321232 1543986
51899 2333151
680662 2791407
1220700 2078522
938671 433602
383972 473020
582330 1967595
1430602 633320
277290 1482124
1237752 873326
794376 983031
1590765 2384588
1057350 1656978
1139771 1222168
986278 99020
1481304 2798298
1528408 2419629
367469 2666403
573090 1022674
1359974 261506
1103487 811766
129515 1647386
1395491 396321
56297 2547973
649392 1701481
381558 2816344
843351 360073
1221618 2295700
510927 843305
42794 182575
662145 214253
83913 1189585
9946 2777329
1131403 2584362
53099 2529021
1228661 2669166
89509 2467611
498965 491150
102850 581652
308431 2577611
790211 1828611
1168142 2001942
1236584 708607
1539167 1961268
1461077 294338
1546974 2738724
1353349 622879
1129985 2769648
1307817 192503
849721 1525810
445850 1461777
254108 812387
1093959 1223204
171977 609531
633471 2878960
327218 2033337
1148632 2686104
408198 1279659
823926 1196918
936302 2600649
494838 1299936
1128097 1249968
1138722 1678493
79270 44302
462605 2648316
655969 1479545
528015 813134
769755 199058
258496 2900435
424103 134310
1376428 2404561
372518 426063
1175614 1042771
259581 1095962
127912 2868853
1219004 2559698
1387683 1541698
961724 137142
356885 130335
298609 947923
491858 2083655
161825 2598526
1646380 2403657
1532466 787243
1629573 817021
787372 1005860
904266 1118874
674342 2260019
384053 137337
295610 2158479
1640563 2028598
1123696 467684
1288519 1440518
781089 2481928
1251477 1138185
1447335 381236
1128328 550485
360556 1806777
1167042 1432596
1499624 505911
310331 2310759
1335097 111723
814382 24917
323657 2882926
254999 616623
1371503 2272530
141073 2572544
215270 1647099
245957 1922441
1578063 459520
649024 1341015
1238519 977139
938107 2101584
1601171 1834460
918098 1007785
1226202 2968100
30116 2163761
496863 2296635
1478937 1559739
1365891 347603
1353087 1764330
735332 1538588
265922 854810
29007 2754364
1263228 2384596
853386 1661296
1483820 1013017
1221923 194331
1582987 1820590
1632891 1615473
1425099 898394
1357405 1012002
679286 1671169
591922 761293
1338151 2644430
702831 1804180
1415510 830943
1471448 280500
851928 509993
1555276 209827
418208 2997352
607261 2017433
74052 2853881
1465970 1527159
646966 974045
626477 331994
358728 1707540
1041712 2766193
474073 1616808
1586773 2211807
60288 2631702
247972 307115
97007 999817
653064 1713343
918761 255097
169793 1815957
1357251 879769
1327146 1099297
1326536 930075
591053 1365577
1009379 3048623
1183832 2665812
416336 344357
1641957 2952919
165433 2491301
652934 2959908
929915 2012855
1599946 1466688
288427 2178495
1484441 2474238
431705 1365488
705737 804843
1435832 1043642
1295402 778429
1627887 2010512
1359121 1562324
1298752 1606027
684848 1848758
1099170 1421084
36789 1019043
1384116 2088090
95195 258501
899758 2589049
867217 2852556
6234 2712070
351870 2868162
738698 980917
1224861 1979739
729305 1539131
890801 319196
1372121 49999
324432 1036130
893773 1205328
105521 1078854
1569643 1585306
761843 827738
1258190 1356731
1452466 700641
1351967 2679046
284000 681077
523173 802512
803511 1411913
45523 708681
912581 1203785
1065673 763952
697607 1517099
681552 1341244
1495280 271872
400278 2799666
530501 3036431
1160470 108427
836213 1876743
1699436 1195855
477495 2613963
224760 984595
1276453 59033
671005 11854
379321 2427371
257903 1960410
1064226 1024088
177004 2673967
1055970 208129
166451 842994
642471 1954057
1097266 289269
1230080 1724019
1624209 1152903
137041 2478812
1649332 1155357
1146866 1569120
176339 949674
1518416 2256537
398867 2142203
196134 2605824
356060 1194264
771634 1286693
388424 2606489
381146 1295914
1656941 2810143
504747 1820152
119106 289638
1160173 1216077
608555 124163
1710534 2811000
448507 2390322
477857 200504
1023740 2671376
1605989 3111931
820495 938509
633487 422232
465488 386601
898353 2030536
805189 1889398
1458961 2877990
385110 1979450
902800 416188
1242383 2029301
1256734 1050251
910737 180705
1743572 2211362
1445036 677866
1212432 1131837
954100 2167916
189923 565730
1321294 2914800
1054125 1335327
1666774 1615661
1478527 966662
1168684 2029812
695385 1294358
505503 1879655
836481 581514
54087 1372731
1203694 2748904
1642279 937376
293180 1307955
896970 1452763
1178750 1760635
1176199 418877
269702 2827541
209482 3144653
760579 1110399
536112 2798842
328090 1734180
1621700 2457494
929162 59750
1180665 995405
181880 1094539
498846 103656
1449113 2781738
1512166 2719376
535201 1231273
58716 2337785
849465 1746901
877893 1754840
1074105 3163247
314987 2592953
895241 2549478
1521387 1754482
297574 2097815
943121 1388530
1096229 2400306
589993 2889677
540617 929846
1443465 2973087
1176653 1940647
1525680 2019174
1216480 1169703
627272 2941362
757279 1120535
1736257 1067712
567881 2396221
338141 139873
138006 137545
288702 688293
883475 3143747
12337 1745386
860038 549665
1805205 1962523
573485 1804107
537163 2890757
1382307 1871447
876354 189681
1304129 906892
867049 1326108
1551953 347295
528926 2142173
713210 1735920
789379 921268
242808 294781
1619668 1429207
1241126 1529424
1025544 3002858
993062 2276440
761715 2908714
802689 3100836
1274254 1836054
1289631 1386251
1696627 2569962
623559 1717002
1520519 1182409
1770273 2478097
150822 477409
762819 2152237
16230 1532436
1493403 2887596
1744001 554255
400629 684227
1311781 1294517
1780910 857504
1070363 3088293
1230977 1048307
389368 2770187
393157 903784
1423422 2754672
798690 189650
391988 228113
1719422 586074
703335 3231177
1577607 2402397
1005396 2315360
819533 737789
724204 2571279
824414 2589380
620343 2407848
964074 945343
1017805 2787191
839451 846358
573720 1314993
728881 3302721
1799781 1243125
463406 3180809
1585681 3310019
1442182 282463
817536 677615
284683 138528
1150953 268087
1738770 3221374
658816 354926
480281 2024245
689078 2923727
572222 1327334
559844 1214376
1247877 320860
355574 2963559
1113227 968068
77559 1927001
21547 724111
977045 1842333
392176 1333041
869432 2564021
1247665 2634256
477581 942450
507359 2738814
679579 456037
1442957 433098
833446 1518577
143980 1959055
1805372 1912303
353332 2605827
617185 1760800
658365 207425
260551 2339619
124213 1482736
1329159 1641123
1477189 486850
173382 372828
137734 1756773
581996 330311
794333 24760
422731 1990189
759214 2098117
1592008 405560
1692459 724917
345939 1966205
775729 1959198
1703469 3197255
1062515 1174787
1287591 1493160
514928 3019254
538856 319798
1832848 911042
143211 2428819
1545457 200362
1395988 1562996
1550388 2346801
1779135 1542662
21456 252990
1796286 1114164
837270 534335
217319 1353431
1680683 1654104
1649091 2241524
1057020 2170493
1104240 3029104
815738 600073
1848682 3173336
1450712 2361505
785151 3354309
1575001 689015
540268 979607
606019 358385
1192410 965485
693775 2405732
729457 249704
1857739 2763478
1685166 1897003
663203 1791071
631310 2288139
291006 2548679
1697234 570867
849005 617583
339538 1398247
453096 1822969
1407119 3192128
295704 1772249
1829356 1960719
977217 2299148
309337 2941163
500266 1124987
735544 335376
1022429 1350486
1470232 2251745
1136573 616997
1823788 946581
333166 2536995
445233 1512471
800039 2242702
1682442 904336
184229 646021
1771458 1550917
691686 634525
718174 2200916
1657315 764125
381869 2711609
1097409 589182
642915 2038051
676847 488041
1771461 1514173
1593181 1950487
1619478 736029
12574 3339905
1291208 689170
1904237 678572
1110518 928131
1247113 222660
1803648 3007648
89359 2745814
1255528 830075
1750801 235209
921321 848051
1268976 3262051
2604 516872
882649 871781
1883591 3213306
987571 2501372
1910095 1401258
25157 1223233
845752 1446092
1788242 711389
1823373 351183
1169189 1266060
1755949 1153053
197814 405864
779264 3330927
200080 2957406
210518 3122076
852927 515825
782396 2641582
1170635 1250337
1386871 1408225
670393 2022305
404369 757186
109393 3202572
885083 2091477
630823 2554101
1673750 3478017
197722 2702000
1500739 3303342
204421 1065266
1576250 3157939
967092 2945138
9364 995896
563082 2014652
1376689 45471
1357457 1988582
1889771 1475521
402522 3488440
658109 1130442
112636 3184260
96193 337058
11106 2374458
596743 191286
1018054 3162943
961804 2516114
581450 1044683
1704119 2144049
1354084 1614144
325377 1103870
1726156 426663
1437699 1788668
1492042 263758
374048 2261728
1854606 2643754
1593453 868765
287855 2288838
1092980 2329180
1915793 2010869
1960102 2413407
89097 1087264
1821244 1681472
1040862 2403883
1666593 38746
1243942 2375628
1722501 3252912
1705293 3127025
1304600 1728484
342579 2966803
835647 1943487
1288462 1204601
1879151 190177
1172941 2918643
1724870 2350183
1503080 510608
1964172 1807944
402395 333313
486428 1903614
697421 1287222
1651242 3399205
1331705 3343915
1682416 1022037
1678906 2453584
652127 345697
49529 2546885
96650 1370313
332009 1293155
586651 2163778
1900213 531072
1268868 2023245
853595 1103317
951314 2848667
757152 1445263
761270 2724409
1829187 517946
356334 981906
1514106 515264
1594332 2208663
610345 1784456
1145553 547401
420506 3261525
479155 839029
926172 3287192
1155894 2396314
546340 1043378
556182 2593024
1413214 1541262
848378 1443627
958831 1598424
284126 1640678
1553358 1035611
1195913 160701
1228533 1130077
846039 632778
482531 2966051
568270 2949397
79613 396797
1088590 1294475
1416311 3114518
1257296 3057452
1326631 2562441
347398 1558668
1595367 976544
824808 413475
1048592 1102121
1923109 91529
416194 1457266
907718 717239
331643 3532625
850047 931888
699817 2921734
1761467 2063685
344213 2605727
569900 1058632
1155902 2230503
1038933 659535
1082877 2408762
1034822 2683917
1741659 1186977
702151 539305
1006115 1933212
1994062 3594084
745844 3469603
91711 178806
585688 68819
1408917 1150531
897862 327443
112038 2122066
991066 2067796
1346440 1031133
1148001 533045
604717 1618105
304413 97164
1129266 1205844
237336 1138086
345807 2717775
1316176 2652859
990341 1427461
673165 2283531
1943605 2863656
1652835 1592391
1398531 1543247
450977 2106600
1317620 865938
1541514 2031414
1818833 1313874
310067 2760445
1650348 21592
254819 3435468
512743 3184882
484382 2746052
531189 2437463
459631 425327
1424207 2722349
1491078 3552434
741425 392229
1538211 430452
786896 1543060
107352 1638267
126242 684863
723586 2813252
519819 3305904
662235 2546267
1319873 1609819
893421 2786884
1198685 2020307
844924 263441
1196115 2370077
190751 1278493
2026537 3152005
1289707 1371028
1138864 3117613
526947 2024975
1072003 3328623
344953 2359132
1089623 1528932
1324719 848333
2009584 2791318
1099850 646844
494597 3640583
1672213 2827113
1907683 2160320
414172 1533954
167924 629230
938547 2772426
1900861 1431508
190080 726378
277723 1905121
984493 2454423
1131518 2881816
2102 2722823
1719673 1134527
1559462 3543081
823248 1297211
1577929 700937
328377 469772
1834797 3416944
1930848 794275
726104 865211
1912215 3462592
270612 1721220
1735855 2072220
1340550 2220145
1681769 1020237
1425250 1202606
1097435 1120970
1986277 258485
1258758 1578885
1997266 1337406
1000139 3372562
1262496 3456166
29048 1012288
1203764 1631244
1517521 1486943
143565 1384119
2057245 3493224
1333758 898516
11055 1662992
1157796 1053458
1205645 3422017
651969 1052450
2017853 1884320
709595 2689942
1919294 2131118
564835 2765620
1365756 659516
2083425 2000095
1690865 1566281
1391116 1545833
873750 1380443
764387 2897233
1309513 1875574
1108012 292168
1305185 1594793
413945 1388402
1798603 2384546
503816 2856117
1654393 1950350
497935 1170136
1940230 2270346
716561 2332156
1911073 293696
367468 3259877
1749958 207754
1749880 532797
513516 2916507
860936 119622
857448 1505362
782006 856993
1077505 2219005
1308463 1913839
156218 3001161
1234885 1592724
691828 74826
1398084 218206
953960 2340758
1280470 1487704
1647737 386397
1593490 806910
1348065 1033047
552055 2609508
1978866 1996710
1713137 230137
1677471 2339918
118536 3133167
973942 1681688
2003605 2882855
1773694 542580
1825974 2640681
1979325 2118903
751196 863417
2014078 855733
766576 969542
1716174 2463420
5589 3669153
1640716 1144935
1070360 1179239
57578 1150157
1035992 2559412
688668 1148994
924577 2001621
1460818 1030954
1351230 3336522
1086153 2293836
144505 1864895
608596 2700345
1797151 110310
2074087 1529401
1063223 288018
1727347 2814030
1974956 3397553
636026 1103496
1026829 1574542
196700 1239575
175965 2779842
2078469 2136680
498652 3823833
1659610 792193
1187370 3614177
1009399 3726695
1661440 538592
293354 1514259
1340701 969404
749707 1633148
510611 1573746
1185394 3701828
572427 3529698
1838648 1573659
1080996 3824119
1895299 3620288
852352 249117
1128402 2022390
614188 3740464
2121652 2284301
2044178 2490037
364325 836751
1291922 2536670
1343717 3110105
1987725 3643679
1442081 232124
1195912 673096
1485729 3690684
330593 2363601
1686065 3421996
1714357 1737167
1471713 2226732
1341580 2921619
1831224 3640248
1111663 1535494
1021676 2539743
1193098 3452817
896152 2221312
2141226 3774909
1244352 2420066
493282 3491577
629969 2006923
1727143 2958072
76770 1514733
395000 2020556
359864 3465102
1881963 1113945
1902131 422621
1165897 338159
1827415 643954
698449 441229
1584662 2471833
2118097 1418397
199658 698550
387287 2645941
1712583 272861
257316 3262212
520780 321713
792314 3111711
1091475 2450205
973480 1055020
1956622 1860055
777743 1213649
2033659 1685502
401032 2901284
1374921 3433686
993877 1216070
1639562 397915
290947 268417
362189 1797948
334094 3496611
546354 2381399
125202 2752492
1867051 480464
1540989 1476157
361957 3895137
1116075 126662
1494260 224969
1836657 1584387
1751232 1235507
723048 1780150
843259 1597317
1876623 451687
2098685 2142146
1423558 1279629
1223765 2035696
848576 1881784
1867788 2966695
2106761 3567110
533900 756908
1006461 3612700
1897318 145748
1046307 3459411
832843 3599075
1639235 1594527
664131 3384008
982311 3008438
1651684 421990
2196524 3399583
2110275 3818712
1398780 1782031
1040092 3484558
1861301 947472
760558 3121408
284164 309018
130656 322150
1194455 1787701
952298 2082466
1461228 1577520
2022821 2402012
251533 3383363
1055196 2618092
1700758 1504450
120197 3052937
1879080 1879378
977164 1842169
786276 1346949
302469 2925490
1130390 3327909
2132164 436686
1735918 1903019
647399 1104176
2177587 1690340
345880 2287299
1279613 3499917
1663160 475213
571591 10065
748712 1062650
1102090 549049
2087910 660688
149274 1090962
886657 873411
1704573 1967643
908928 3302611
1562815 408334
1090543 3907475
1858302 2527220
1535794 1948272
1220724 3121154
1316955 3152081
159087 1288784
853750 2673053
7387 2655737
1014035 3662391
813085 39502
2036136 3870586
1872110 2360429
1063810 31336
1537171 2851034
1209406 3950410
1433609 199802
552211 1165049
2038694 1455161
1706829 3276152
843535 2987692
1225275 2995477
368713 1159433
1708419 3270383
1583921 3726262
459542 2511053
103175 1967169
1885493 1964344
843934 2566663
2170996 3241471
236851 1796123
200514 3774629
1487215 2751633
1915555 1477936
961062 2469175
210930 940127
1742857 2467055
908325 3233660
1291702 898998
1207299 121181
1076616 865419
381672 3363678
2160960 2062342
559610 3190612
711330 3023033
2161446 1885832
1377066 608761
263992 1656194
292892 3191813
1062110 1585132
1958904 790872
869580 1001491
1713510 572006
2051298 2503068
284011 3622889
1783131 2692612
844301 2779619
865536 3496450
722700 1460212
391568 2386684
1632195 2538686
1237553 3757714
2264221 3421556
1623467 3006433
621259 2577013
1353168 3400165
301174 2029363
1418493 2202551
729050 1736594
2185650 3758181
860554 640047
1869454 4048059
2141856 364030
713409 1228570
1174129 472449
1058884 173483
42117 85511
214022 3710427
764701 1170389
565191 3928161
1081608 2492824
394467 2570371
1136912 3574237
1673168 2929359
1014303 1529388
418261 615912
225120 2737488
1948967 1420838
174579 2980467
814929 1738054
360709 3399604
1427284 2385781
2273360 3051765
388892 3971811
1601256 3263903
2233067 3196519
1030856 859630
1845341 188868
871788 1974338
1556508 736702
1509227 2728705
1681667 2915609
950152 3970955
1025481 1118767
427515 643415
1406472 1049668
1554240 2007632
79447 2399144
1428890 929648
828320 2788681
1792549 4040292
1413932 2818108
413336 276571
1017196 1289038
421906 2664496
155717 1896229
1901831 2532697
1184703 191769
336154 3242797
2038175 1825944
407977 3390516
1295936 648879
838758 4099410
1240281 2967538
2089134 1694618
1993055 2816146
503013 3271552
1486106 3127099
344699 2523620
1414909 2650439
1057111 2050777
905017 1556359
452141 3770419
2124517 2685349
827516 3351627
887699 800000
962347 3572737
1387921 2593710
1973711 3309581
1681546 1820289
2252990 2808991
1093864 907075
1073351 3022351
1397499 3146493
2089001 3866885
1706157 3992836
1598126 1490914
2270781 3440277
2008605 1051026
997945 314553
941543 3781336
1669912 1447988
1310327 2559055
4301 1896554
1917594 1026026
1855763 406748
874006 1758629
2274072 2077764
94608 634010
256870 95716
939139 1711854
