4244
10109300
10105452
10108739
10107727
10105032
10103813
10108986
10104724
10102752
10104311
10105904
10108613
10106439
10109481
10106214
10104399
10102362
10108783
10108456
10106631
10105595
10108591
10107419
10106423
10105555
10105563
10107564
10109618
10104802
10106792
10104185
10107960
10103558
10107791
10108923
10108673
10102647
10104661
10103115
10103912
10105875
10107424
10104248
10108364
10109457
10104635
10103992
10106337
10107717
10109171
10104648
10102020
10106292
10107219
10106169
10103829
10102421
10103124
10105775
10102069
10107987
10107709
10107471
10105127
10108178
10106545
10104001
10104018
10108328
10109448
10106947
10109155
10107777
10103398
10105257
10102375
10104614
10106398
10105186
10109230
10105435
10109582
10103251
10102043
10108317
10105799
10102368
10105479
10108186
10103757
10103038
10105680
10104214
10102413
10106803
10102245
10108697
10107067
10102959
10106465
10103692
10106520
10104383
10108756
10106405
10102796
10102431
10105890
10105217
10108625
10103544
10106979
10107228
10106222
10102906
10107581
10104835
10107288
10107766
10106490
10107599
10102539
10104842
10106897
10108023
10107490
10109173
10102635
10103542
10109787
10103461
10107649
10109479
10105006
10102091
10107011
10106447
10102659
10104703
10109098
10108507
10104042
10103874
10107496
10103038
10102930
10108532
10105801
10103340
10102701
10105044
10108918
10105902
10104453
10108282
10106310
10108633
10108344
10102467
10105875
10105482
10105258
10102299
10102506
10104877
10108268
10103380
10107915
10106041
10105586
10102677
10105392
10105325
10109085
10102603
10104281
10106006
10107031
10103326
10103032
10102042
10104894
10102639
10109112
10106209
10109179
10108208
10104556
10105660
10108149
10109822
10108280
10104749
10109490
10107654
10108097
10109134
10108618
10103648
10102648
10104654
10109694
10105620
10106078
10102582
10107817
10109480
10108466
10105346
10105781
10109172
10104672
10102929
10104467
10102578
10106298
10106649
10108114
10109457
10103492
10108637
10104969
10105212
10106709
10109049
10108685
10107919
10103559
10106412
10108571
10105276
10108875
10108512
10104575
10108532
10102909
10108086
10107825
10102535
10104253
10108167
10105439
10105304
10104281
10103657
10109807
10104540
10102389
10109601
10105493
10105069
10103229
10103350
10108511
10106147
10107796
10104493
10103814
10109011
10108455
10109306
10106442
10104273
10103461
10106440
10103101
10104292
10108790
10108629
10109611
10102043
10105146
10103340
10108083
10102342
10107420
10102236
10109354
10108563
10108036
10106115
10108263
10104935
10106791
10108756
10109602
10105676
10107039
10109803
10107142
10103298
10109491
10105825
10107091
10107355
10109068
10109215
10102808
10106219
10102690
10109250
10107406
10102428
10107926
10105889
10103103
10107998
10102657
10106754
10106750
10106617
10102869
10108608
10108921
10106042
10109858
10103418
10104425
10102814
10107752
10106039
10105520
10104287
10105954
10105999
10106939
10105997
10106044
10102624
10105940
10107832
10103654
10108211
10108239
10102362
10106301
10104388
10102689
10109429
10104039
10103171
10109618
10108001
10104237
10106799
10102231
10109538
10107186
10103460
10107699
10103306
10102694
10102719
10107108
10108939
10102877
10102513
10109720
10107976
10109830
10103177
10106787
10108403
10108122
10109189
10102380
10107271
10107651
10105052
10106928
10103107
10108454
10105146
10106765
10106829
10108103
10108511
10104934
10106642
10106606
10102076
10105458
10106065
10107871
10107611
10107049
10109370
10105356
10104729
10107875
10109213
10107431
10107738
10108832
10107518
10105618
10108138
10105025
10109529
10105138
10104227
10102582
10109847
10102748
10109417
10106111
10104322
10107076
10103811
10105611
10106556
10109943
10104459
10109033
10103688
10106976
10102075
10106199
10108120
10106655
10102430
10102332
10106272
10103023
10108804
10106925
10108492
10103378
10104380
10103897
10108910
10108984
10108618
10103035
10103447
10108741
10109562
10109329
10104270
10109240
10103243
10104741
10109037
10104026
10108853
10106481
10103072
10104252
10107304
10108080
10102027
10103329
10102213
10107267
10106756
10102570
10106327
10109769
10105995
10109290
10105549
10104379
10107587
10106884
10102746
10106068
10105738
10106030
10102374
10107695
10105967
10106482
10109829
10103562
10103690
10106566
10108642
10104285
10106016
10104573
10105841
10105902
10109583
10102129
10106812
10109409
10106640
10106017
10107556
10108187
10108699
10108681
10106975
10106731
10108880
10108752
10105740
10105446
10104888
10108650
10107603
10109095
10103074
10102817
10108322
10105482
10104452
10106110
10106191
10106024
10103727
10107839
10104171
10105266
10106828
10104330
10108182
10104975
10107671
10109701
10106484
10102928
10103198
10105989
10108328
10105837
10102114
10102800
10107107
10102459
10104312
10105968
10109057
10107865
10106438
10107287
10102655
10106381
10105142
10105559
10102623
10109230
10102529
10107791
10103689
10106771
10106006
10109759
10102824
10109053
10102361
10109639
10102376
10107777
10106715
10103195
10107767
10106694
10108844
10108487
10108784
10108158
10106141
10104787
10109210
10103485
10104905
10106507
10105469
10107026
10106295
10106621
10105072
10103023
10109396
10109053
10108023
10103192
10108371
10105232
10108882
10106493
10102349
10105174
10102516
10108615
10103544
10108232
10105211
10104588
10102276
10102768
10104994
10102096
10109650
10105851
10104186
10107896
10104918
10107369
10102710
10102086
10109871
10107598
10102876
10107616
10105123
10103162
10103158
10109121
10103551
10104814
10103102
10105459
10109949
10103661
10109314
10109606
10102911
10104458
10108045
10102140
10107009
10107312
10108789
10103665
10108310
10106688
10104286
10103764
10106135
10102735
10105442
10109004
10106431
10106095
10103307
10109051
10107863
10103617
10108478
10105019
10104470
10104946
10109152
10104070
10105955
10103787
10106234
10109427
10105931
10106604
10104323
10108812
10103839
10103670
10102236
10109834
10102264
10107641
10107241
10102996
10107685
10107222
10107495
10105617
10108874
10106515
10105278
10103504
10105930
10108809
10109054
10102505
10106853
10106773
10103005
10106171
10103491
10103055
10108597
10107115
10107497
10107187
10104936
10104677
10103734
10107394
10107324
10108802
10108567
10105070
10103848
10108276
10109487
10108081
10107268
10108029
10107764
10108038
10108226
10104334
10103440
10104010
10102309
10109985
10107658
10108008
10105705
10109717
10102686
10109655
10109113
10102481
10107869
10107566
10108860
10109700
10105208
10103139
10108772
10108062
10102570
10105488
10103032
10109010
10107108
10106735
10102093
10105520
10103953
10102199
10108322
10106449
10109403
10107978
10107219
10106679
10104269
10108877
10102371
10105495
10104470
10103445
10108803
10105426
10108589
10103691
10102899
10104664
10107541
10102528
10102626
10104822
10106062
10102871
10105574
10103179
10109854
10107235
10107760
10109312
10108311
10108593
10108521
10109985
10109231
10106162
10104954
10108120
10103655
10105431
10102928
10103781
10103553
10105328
10109849
10105883
10107480
10105676
10104151
10108233
10105080
10105089
10103448
10104692
10108132
10103391
10102755
10105883
10105425
10106900
10104223
10104424
10104694
10105865
10103722
10106686
10109126
10102789
10106573
10106704
10104343
10107134
10106244
10107598
10105009
10104058
10109314
10108006
10108207
10103368
10102681
10103154
10107904
10104304
10109170
10105620
10108110
10103094
10104127
10106288
10109240
10106331
10108171
10102659
10105868
10107684
10103995
10107956
10108870
10103924
10102800
10106496
10105836
10106157
10106372
10104989
10109747
10105653
10103943
10102995
10102876
10105787
10107160
10109861
10102184
10105005
10102852
10104790
10107481
10105841
10107665
10107800
10103573
10102168
10102734
10105534
10106212
10103921
10109914
10106270
10104799
10104641
10109258
10108621
10107120
10103201
10107073
10105891
10108407
10102183
10102888
10105798
10106724
10106441
10109377
10106577
10105575
10109999
10105188
10104595
10109981
10109282
10106333
10105284
10109287
10107617
10108467
10105433
10104223
10102778
10105438
10104569
10103281
10109527
10109582
10103408
10109240
10102320
10103550
10103125
10106174
10104101
10107007
10105749
10109504
10106044
10107951
10109740
10106893
10106581
10105360
10106390
10103065
10106362
10102316
10108166
10102441
10106871
10106088
10106847
10107295
10104139
10104473
10107376
10102111
10106178
10103532
10105701
10102187
10102360
10108565
10106713
10107288
10106475
10107673
10104138
10109226
10105448
10103320
10107402
10106976
10102796
10102126
10104848
10106673
10108972
10108813
10106569
10109398
10104217
10108660
10105047
10102714
10105518
10109157
10104653
10108460
10105202
10103755
10106989
10107782
10103462
10109797
10107375
10109391
10109258
10104652
10106237
10105884
10102870
10103616
10105255
10107432
10107669
10104088
10104252
10109762
10108848
10108574
10108197
10106327
10107011
10106555
10104777
10107167
10107576
10103090
10109157
10109210
10109314
10103082
10102423
10109232
10107731
10104472
10102405
10104217
10106888
10103338
10108768
10107959
10107246
10104688
10109423
10104105
10107284
10102365
10104783
10109223
10104507
10103918
10107543
10103812
10108453
10108602
10107108
10109604
10107162
10103657
10105948
10103221
10106916
10102642
10103197
10102578
10104437
10103583
10106924
10107533
10106220
10106965
10104577
10107970
10103360
10104880
10108321
10109003
10105904
10107626
10107389
10109829
10102505
10106688
10107877
10108492
10103302
10106547
10106707
10103412
10107252
10107948
10109887
10106726
10107224
10102667
10104220
10106427
10108281
10104410
10106421
10109206
10106523
10102201
10105431
10104629
10104583
10104321
10103423
10108064
10109949
10108667
10103377
10106906
10108911
10107405
10106882
10105420
10103050
10105835
10105101
10105334
10106896
10109346
10106637
10105710
10104308
10103169
10107636
10102444
10103282
10105402
10102258
10103549
10103732
10107842
10104977
10105549
10103520
10108860
10103370
10108787
10109188
10106132
10106077
10102996
10105042
10105640
10108644
10108197
10104422
10104681
10109646
10108714
10108043
10109689
10103638
10102230
10108485
10102456
10108930
10105106
10105235
10106176
10106028
10103664
10104198
10108987
10108047
10103466
10103329
10102221
10106060
10109238
10106753
10105177
10102407
10106715
10108124
10104669
10102085
10105825
10104689
10106850
10105642
10108637
10104409
10103068
10104611
10109958
10109230
10109102
10108237
10106918
10104981
10109473
10108708
10108976
10103910
10109431
10103339
10104304
10103176
10108036
10106741
10105502
10109205
10104606
10102878
10106563
10109735
10109587
10103075
10103973
10107428
10105985
10109401
10105164
10102642
10107407
10105401
10103453
10102742
10102749
10106282
10103504
10107240
10108978
10109532
10106897
10106218
10106074
10105131
10102644
10106870
10107162
10102865
10106646
10104203
10103509
10107831
10105694
10103140
10107599
10106771
10105876
10103216
10107647
10107148
10105602
10107913
10103074
10105516
10103435
10104481
10107903
10102525
10107701
10103105
10103494
10105645
10109570
10109347
10104793
10106367
10103280
10104217
10103642
10109802
10105091
10105063
10102195
10105264
10107623
10105065
10105699
10102597
10102286
10104928
10105084
10108085
10102952
10107769
10102164
10108898
10102295
10109043
10109953
10109092
10107440
10102883
10102445
10102634
10105200
10107817
10106549
10109409
10105162
10104739
10105907
10103018
10106255
10106328
10107513
10104995
10106012
10108476
10109067
10106376
10106966
10105180
10105313
10109973
10108098
10105005
10105007
10105323
10106608
10104173
10105273
10106994
10105022
10103214
10104497
10109365
10108858
10105261
10109622
10107246
10107703
10104335
10102974
10108339
10107010
10105472
10109290
10108963
10102402
10106775
10108629
10104509
10104342
10102571
10109844
10104143
10107865
10103812
10103695
10106603
10104604
10108733
10107928
10102084
10108219
10109469
10107711
10108305
10109761
10107687
10105162
10109688
10103975
10107075
10104967
10109797
10103103
10102676
10107965
10104565
10105871
10104624
10105688
10104308
10109582
10109002
10109548
10104818
10109175
10106931
10109542
10103272
10109891
10104784
10103732
10102163
10106798
10103187
10105918
10108688
10102926
10106838
10104042
10108998
10105266
10107631
10109535
10106094
10106122
10103137
10108975
10109307
10105560
10109351
10102258
10108091
10109754
10107501
10108191
10108341
10102791
10105555
10107413
10109462
10103951
10108570
10106313
10104958
10104746
10106480
10102968
10107537
10106669
10106339
10109150
10105923
10106219
10105625
10102740
10102872
10105694
10107642
10108578
10109941
10107536
10106194
10108631
10107257
10106948
10106835
10103444
10105425
10105981
10109377
10107519
10108964
10107039
10105317
10107289
10104145
10106481
10105916
10105084
10108260
10104799
10103126
10102879
10106880
10105376
10108473
10107477
10108892
10104996
10102820
10108913
10108302
10108587
10108799
10104849
10106853
10107143
10108961
10104170
10108968
10104651
10102369
10107278
10104406
10103939
10106901
10102693
10106124
10104881
10108295
10104834
10108505
10102013
10102653
10108177
10106165
10108234
10106227
10103859
10107382
10105527
10102014
10107127
10105616
10105638
10107352
10103414
10108622
10109118
10102925
10103488
10103597
10104169
10109142
10104331
10103037
10107663
10106845
10103661
10102752
10107338
10104154
10103013
10105473
10109975
10102812
10103891
10107567
10105781
10106101
10107194
10108808
10102868
10108640
10109978
10102583
10103833
10107170
10107971
10109011
10103315
10109671
10105917
10109271
10104021
10108596
10109130
10102453
10102913
10105245
10102540
10106616
10109614
10103159
10105158
10104009
10102677
10102994
10106640
10109890
10108455
10104580
10104441
10103057
10102573
10104123
10102631
10104539
10104591
10102508
10105817
10102802
10108463
10108739
10107743
10106213
10102847
10103977
10109075
10107864
10108213
10108320
10109846
10108142
10104948
10105024
10102638
10109064
10104677
10106492
10106706
10102499
10104458
10106040
10107270
10105130
10107069
10108730
10106593
10103853
10104631
10104945
10109490
10104386
10106147
10102177
10109591
10108425
10108686
10109425
10103574
10104401
10109679
10107382
10109052
10107443
10103056
10105890
10104015
10102855
10108571
10103738
10103327
10105883
10106609
10108463
10102776
10105137
10109139
10104996
10106618
10108869
10108268
10104557
10106103
10104410
10106234
10104376
10104257
10102842
10106045
10103565
10106652
10107301
10103024
10107036
10104971
10107761
10105217
10108426
10102054
10103746
10109189
10103653
10106445
10106830
10104983
10108738
10109215
10103602
10105241
10107791
10103236
10105358
10103691
10108671
10106215
10104729
10106535
10109429
10106021
10108439
10107149
10106096
10106741
10102990
10102745
10102796
10108638
10108044
10102091
10109645
10102930
10106630
10104298
10104630
10102840
10108371
10104025
10109337
10108048
10104717
10105242
10105855
10102694
10103328
10102162
10108079
10108753
10103584
10104594
10109224
10106684
10109991
10108595
10108246
10105005
10108820
10108998
10107389
10108779
10109876
10107010
10107701
10107153
10106236
10109064
10104407
10105393
10107829
10103566
10106079
10103716
10102290
10107481
10107384
10103104
10102679
10106427
10103464
10105173
10105478
10103289
10107500
10107478
10107660
10108676
10106246
10105295
10109792
10105981
10109808
10107791
10108213
10107745
10102982
10105284
10103965
10106629
10108759
10102746
10106380
10108629
10102462
10102999
10106126
10102847
10104753
10108150
10108082
10102892
10106997
10105050
10108710
10105631
10104935
10102654
10104640
10109879
10105308
10107533
10107069
10108020
10105269
10103323
10105980
10104489
10109528
10105099
10103606
10103303
10105407
10106021
10108005
10107287
10102633
10104087
10107142
10109927
10102944
10106486
10104497
10109595
10108925
10108993
10109098
10104352
10106107
10103370
10105947
10103977
10109094
10107842
10106315
10103861
10103665
10106894
10105821
10104470
10107466
10105766
10102876
10109372
10109838
10102060
10105772
10106398
10105834
10104141
10103576
10109919
10102681
10104141
10105330
10109375
10107799
10109896
10107165
10107200
10108763
10106506
10108955
10108668
10104290
10109015
10109988
10108978
10104478
10102191
10103970
10109357
10103172
10104038
10109881
10104313
10103894
10104364
10108802
10105222
10109100
10104718
10108175
10106114
10109109
10105534
10103011
10104900
10109953
10102793
10109355
10107235
10109556
10102214
10103845
10103240
10108258
10102081
10102597
10103113
10108783
10108540
10104766
10107253
10105850
10103354
10103913
10106970
10104778
10105311
10107393
10107658
10103981
10108062
10105848
10103300
10105559
10104808
10105991
10107900
10108430
10106560
10106842
10104776
10104911
10103100
10103012
10105603
10104398
10104347
10107208
10106431
10106474
10107564
10103794
10108846
10106989
10107685
10103619
10102824
10102586
10105110
10109073
10106885
10109211
10103833
10103369
10104002
10105009
10106987
10103754
10106274
10104653
10104873
10106110
10103238
10103143
10102899
10108401
10104178
10107541
10109083
10109997
10108951
10108904
10102167
10109446
10105546
10103820
10108734
10105782
10105929
10104078
10105320
10104248
10104885
10108884
10103976
10108000
10103794
10105950
10108574
10102162
10106656
10105512
10104334
10109407
10109297
10106373
10106999
10104076
10109558
10104889
10104760
10107032
10102738
10109478
10109992
10103784
10108565
10106727
10104953
10104907
10104038
10104968
10107015
10106874
10106413
10107679
10104213
10103101
10109811
10105051
10104578
10105140
10102341
10105337
10106480
10106946
10102398
10106215
10105987
10108145
10108386
10106690
10108827
10108095
10102240
10104512
10109572
10108868
10103631
10102204
10108380
10107556
10104388
10109652
10104367
10103491
10105017
10109774
10104018
10105049
10109721
10109446
10102381
10104326
10102659
10109114
10105003
10109306
10106476
10109210
10102445
10107475
10105947
10107992
10107802
10104485
10106158
10109059
10107315
10107193
10105780
10102919
10107391
10105430
10108344
10104115
10102803
10106575
10107342
10107349
10107791
10103928
10109857
10102810
10107298
10104903
10108541
10106212
10103882
10107966
10105345
10109407
10109673
10104315
10107533
10108333
10105014
10103152
10103536
10104921
10108513
10103020
10106594
10104556
10106379
10105864
10102912
10103570
10103027
10102497
10105416
10102870
10106708
10109362
10104169
10107349
10108992
10105506
10105125
10103075
10102723
10107342
10108294
10108920
10104317
10108203
10109117
10109631
10105372
10106186
10107127
10103242
10102961
10106095
10105731
10108875
10107603
10104957
10108501
10102204
10107742
10104368
10106959
10103121
10103667
10108418
10106289
10109762
10107937
10106075
10102594
10103386
10106301
10107275
10102480
10107343
10103005
10105640
10109313
10108727
10102075
10106007
10108639
10102403
10102821
10108255
10106824
10102331
10102919
10102493
10105210
10103651
10107878
10107189
10109264
10103121
10107534
10108780
10102809
10104082
10102761
10105940
10109680
10103117
10105941
10104668
10104474
10107436
10106731
10107888
10104748
10105591
10107588
10102976
10104984
10105026
10109835
10105118
10106383
10104518
10102215
10104632
10102187
10102717
10108524
10108637
10109653
10105906
10109745
10103847
10102769
10107528
10103680
10104262
10102883
10102637
10102099
10109720
10102629
10107066
10109504
10106236
10102345
10105042
10104185
10107723
10109258
10109183
10102015
10102873
10105324
10103966
10109895
10105995
10109489
10109828
10107084
10103182
10105201
10106835
10106037
10107425
10105511
10103282
10102374
10107992
10102031
10105720
10102725
10104434
10104479
10104104
10103162
10106582
10103567
10104359
10108241
10103570
10109152
10109678
10105212
10105723
10104859
10108318
10103224
10103273
10106798
10107718
10104681
10102441
10107904
10102796
10102801
10106087
10103418
10103028
10109866
10108587
10106710
10102232
10108789
10104085
10106873
10105714
10103328
10102691
10104583
10107847
10108857
10102197
10103833
10103407
10103122
10107361
10107280
10107140
10107287
10107181
10103142
10106009
10103418
10108569
10103733
10104202
10109378
10104395
10104647
10106980
10107627
10102201
10105038
10102690
10103242
10102028
10104612
10103533
10102437
10106612
10107666
10103678
10107460
10109070
10104063
10103752
10105518
10108650
10107645
10108677
10106342
10103021
10106142
10104090
10104931
10103180
10109516
10102830
10109356
10104302
10106229
10106487
10105403
10105479
10102516
10102354
10106446
10108334
10107586
10102402
10108284
10106967
10109706
10107248
10108779
10104498
10102812
10102726
10106413
10102693
10108273
10108803
10108423
10105083
10108268
10102166
10102954
10108407
10105562
10106563
10108266
10109442
10106771
10102958
10102143
10107905
10106834
10102498
10108886
10105407
10103164
10107259
10109908
10102304
10108734
10102443
10105547
10104831
10105823
10109665
10106517
10104312
10103186
10105594
10106776
10106608
10103907
10109964
10109810
10109557
10109494
10106920
10107226
10105686
10106627
10108747
10109220
10106980
10106700
10109322
10109597
10105041
10102691
10103361
10103755
10106258
10102200
10105163
10103747
10108211
10108545
10106537
10109565
10103037
10102567
10108427
10106032
10108120
10103766
10105644
10103812
10107628
10108986
10105872
10104148
10103176
10107191
10108640
10108999
10103536
10109225
10102529
10108491
10103876
10104533
10109906
10109424
10108752
10103898
10103007
10103181
10105436
10102396
10105479
10106932
10102023
10107596
10103697
10104928
10106249
10105051
10102921
10108927
10102749
10109756
10104106
10105706
10109493
10107794
10108639
10108461
10105000
10104525
10108146
10109246
10108884
10107416
10108677
10106700
10108254
10109962
10107611
10105300
10102347
10102989
10105160
10104251
10102083
10103424
10106718
10108116
10107200
10108700
10106679
10102601
10109204
10102084
10103718
10106880
10102438
10109077
10105964
10102019
10105222
10104741
10107485
10108372
10104455
10104877
10102056
10102188
10106120
10106228
10104346
10108676
10103136
10102430
10109127
10102720
10103289
10109564
10108107
10106529
10102508
10102460
10109500
10102612
10105842
10102727
10107223
10102464
10108265
10105871
10108052
10103816
10105663
10109474
10108816
10107807
10103106
10103892
10106510
10106132
10104815
10104445
10106789
10108350
10107960
10107792
10107078
10106751
10109450
10106837
10104679
10109070
10106572
10109318
10106931
10109404
10106585
10105466
10102491
10106367
10104028
10106589
10107361
10106311
10105743
10105283
10103029
10107964
10105159
10106741
10104444
10106739
10107236
10106329
10102965
10107427
10108702
10104466
10102707
10106014
10106317
10105308
10108529
10109982
10104058
10106623
10109553
10108507
10106080
10102855
10102401
10105604
10107736
10107895
10102742
10106999
10106218
10105848
10103545
10105155
10103125
10103029
10102164
10104909
10102313
10109269
10105695
10105546
10102243
10104651
10103547
10102877
10108829
10106459
10104860
10104157
10106817
10102537
10107147
10108800
10102276
10103930
10109219
10106238
10106362
10102426
10102562
10103211
10103561
10102542
10107025
10105674
10109780
10109773
10103739
10104009
10103256
10104925
10102828
10106343
10105088
10107878
10107865
10103651
10107523
10105725
10103104
10109382
10103820
10108331
10109288
10105505
10103908
10107477
10107811
10107081
10108128
10102399
10106133
10108326
10103382
10102017
10105168
10106763
10107131
10103403
10106318
10103198
10107254
10109039
10105435
10105185
10102778
10108290
10103082
10105162
10109034
10104970
10104242
10105598
10109263
10102772
10103562
10107429
10105812
10108958
10103309
10105280
10102934
10108216
10105709
10103293
10102040
10105580
10106089
10107297
10103351
10102406
10105913
10104927
10107583
10104979
10104269
10108485
10108460
10102359
10102909
10109173
10106144
10108771
10102051
10103051
10109639
10102333
10106188
10104266
10107114
10108112
10109359
10103564
10109848
10107130
10108525
10108562
10107575
10104384
10103474
10102057
10108822
10105876
10108365
10103208
10105521
10106368
10107321
10107488
10105285
10108208
10102885
10103019
10105918
10102425
10103159
10103504
10109137
10105352
10109893
10104169
10108815
10103066
10102250
10106452
10104040
10106671
10102177
10103250
10103978
10106122
10107796
10108912
10107776
10105539
10106353
10102449
10109691
10105006
10109895
10104567
10108803
10108574
10108028
10108841
10105680
10106774
10105351
10106673
10102543
10107951
10109011
10107484
10105605
10107021
10104913
10102498
10103017
10107789
10107878
10102546
10105100
10109562
10108089
10103502
10108910
10106522
10104322
10104445
10107742
10106254
10109897
10106745
10102131
10105828
10106420
10106045
10104560
10102721
10109822
10105726
10107317
10106895
10105272
10102431
10109219
10106714
10106837
10105974
10107264
10108292
10108466
10104056
10102555
10102288
10103437
10107727
10107900
10102357
10104939
10105162
10103120
10103073
10107527
10106573
10102440
10106651
10106702
10107106
10106161
10108096
10104894
10102614
10107758
10106772
10109684
10102322
10104417
10107711
10108725
10105913
10108984
10106317
10106683
10105912
10105233
10102098
10109544
10103188
10105108
10104559
10104022
10109761
10107507
10109971
10106698
10107804
10107430
10108247
10105308
10108884
10109291
10103951
10102357
10103402
10105800
10109203
10106420
10108696
10106900
10108361
10102653
10109939
10106305
10103237
10107599
10109144
10108325
10103702
10103797
10107440
10107005
10109152
10103731
10109194
10105471
10102186
10107991
10108255
10106155
10102538
10104826
10109391
10106818
10106312
10106616
10108599
10103495
10108296
10108279
10103621
10105710
10108973
10103030
10108758
10103700
10105811
10104147
10103741
10109215
10107290
10102535
10107731
10102823
10105457
10106849
10103133
10105336
10102687
10102968
10102554
10107896
10107508
10103439
10108236
10103018
10108055
10105904
10102669
10107330
10109744
10103756
10105620
10102346
10103646
10102619
10105910
10106258
10104842
10102263
10106682
10107083
10106961
10103889
10106805
10106063
10109778
10104511
10104464
10109210
10109449
10102300
10107079
10109781
10107165
10103884
10107490
10106774
10102605
10105555
10107388
10105128
10106158
10103866
10108265
10102843
10104344
10104106
10106151
10103031
10107342
10106444
10107824
10103800
10104519
10105984
10103715
10108422
10107812
10106783
10104658
10108136
10104998
10105023
10108351
10108046
10107162
10103181
10103609
10105159
10106986
10102970
10109398
10106417
10102255
10106000
10106916
10104786
10103935
10104263
10108805
10103366
10103246
10109546
10109687
10103181
10104924
10102271
10103615
10109486
10108524
10109791
10109892
10105769
10105843
10106156
10104231
10104312
10105036
10107878
10104452
10105748
10103699
10107643
10107494
10108806
10108740
10107761
10109939
10106108
10107546
10107569
10109243
10108920
10107543
10104318
10103181
10109140
10106530
10109828
10105766
10104933
10103788
10102591
10108279
10102258
10106404
10108679
10106480
10107415
10106746
10107812
10103618
10104006
10103961
10102906
10104968
10104239
10102271
10106044
10102279
10102886
10104050
10103200
10104747
10104747
10106420
10104309
10106987
10107451
10105125
10104084
10108124
10106203
10103235
10107620
10108491
10104114
10106038
10102278
10109022
10109725
10109482
10105731
10105017
10108172
10103120
10104467
10109034
10109085
10105876
10102169
10104601
10106412
10109677
10109505
10103412
10109571
10109212
10107007
10107632
10103300
10107622
10105423
10109489
10107340
10109666
10109773
10105242
10107468
10104992
10103590
10108747
10104001
10105927
10107031
10109767
10106468
10102969
10103250
10109209
10106066
10106428
10104929
10109251
10102915
10102624
10103899
10109444
10107132
10103008
10109329
10107263
10107174
10107681
10102982
10103273
10103202
10108021
10108077
10103725
10108531
10109046
10108996
10107917
10109991
10108945
10106679
10108034
10105454
10104615
10103533
10105171
10106149
10103577
10108965
10104596
10102262
10106822
10106044
10109194
10104525
10107735
10105039
10104096
10102832
10102252
10105687
10108239
10107408
10108894
10109316
10108962
10103290
10105266
10102372
10105429
10102217
10106880
10103777
10105909
10105963
10106055
10109876
10104662
10104509
10107916
10109820
10109496
10105337
10105348
10107569
10103426
10105783
10108428
10106936
10108826
10108681
10108364
10102596
10105097
10107878
10106578
10102604
10103425
10103413
10107338
10104512
10105605
10109147
10108704
10105663
10105254
10105360
10108703
10102724
10108708
10104468
10104023
10104079
10105141
10105141
10105830
10107760
10103577
10103428
10105009
10104662
10102245
10103487
10103529
10108759
10106804
10102648
10107330
10106331
10102018
10105926
10109905
10104736
10109997
10105753
10107066
10105111
10105575
10108187
10108771
10106552
10102780
10102797
10105536
10102452
10102205
10109254
10106806
10107818
10103436
10105261
10106912
10108427
10104399
10107958
10104077
10104938
10102733
10108361
10103387
10104402
10102920
10104888
10105319
10106146
10104343
10109281
10107669
10108401
10109217
10105027
10103481
10109065
10108908
10108453
10109771
10104183
10106927
10105376
10103991
10106542
10107712
10104465
10108959
10103596
10102249
10109171
10102959
10109477
10106023
10104234
10109074
10103258
10103661
10106654
10102556
10106390
10106167
10102371
10104897
10107340
10103510
10106775
10109544
10102399
10109518
10105683
10102997
10102776
10103801
10105539
10107761
10105192
10106138
10103280
10104109
10107499
10109238
10102660
10109171
10102383
10109002
10103991
10103280
10107936
10106587
10103526
10109825
10103240
10106878
10107144
10109662
10103747
10105167
10109996
10102195
10103719
10109680
10107446
10104300
10104414
10109230
10108978
10103973
10106604
10105644
10102171
10104006
10103152
10105509
10104870
10104005
10107312
10104972
10108645
10106466
10103072
10108030
10103351
10106841
10103184
10103699
10105200
10104316
10103610
10102140
10109449
10104750
10104889
10107279
10107355
10102295
10103623
10105183
10106276
10109110
10106654
10109361
10106734
10103611
10103824
10102548
10109683
10106552
10102361
10108736
10102245
10103242
10104566
10105967
10102514
10107842
10103129
10103981
10107366
10107764
10105817
10105820
10105376
10103811
10103082
10107089
10105635
10103802
10104861
10107605
10104767
10104262
10106822
10107456
10109347
10106621
10103179
10102090
10106868
10103877
10102044
10106088
10102334
10107801
10103612
10109888
10103935
10105239
10106071
10109214
10109116
10108654
10106125
10103586
10102410
10107521
10106995
10105247
10106281
10109865
10107714
10104452
10107535
10104464
10103321
10102502
10106176
10104130
10108154
10102624
10104528
10108391
10104142
10108607
10109935
10103197
10108273
10103713
10107095
10108914
10102751
10108441
10102220
10108708
10107817
10104123
10108155
10107717
10109405
10107593
10104349
10107313
10102598
10105445
10105114
10106153
10109265
10109765
10105233
10107883
10106558
10106197
10103981
10105957
10102284
10102545
10106421
10104115
10105168
10107200
10109561
10109792
10108039
10106190
10103736
10106433
10105151
10105231
10106330
10104998
10109604
10108642
10103378
10105635
10105847
10105863
10108940
10102111
10107680
10102069
10103529
10106597
10103940
10102403
10102836
10108720
10109937
10106288
10104926
10103914
10108191
10109829
10103983
10102879
10108935
10109306
10105982
10109170
10108509
10106540
10105574
10103656
10108047
10109280
10104363
10107978
10107351
10103764
10108684
10109632
10106690
10105575
10106997
10102998
10107324
10107743
10107737
10104171
10107970
10102793
10104203
10106795
10107950
10102469
10103071
10105065
10105709
10103163
10109094
10105754
10102358
10102519
10104869
10102786
10103289
10108236
10107296
10108525
10105660
10105204
10102868
10105295
10102016
10102017
10108998
10106658
10105050
10107356
10104472
10108418
10104059
10104796
10109400
10103224
10103510
10107951
10103680
10105170
10109117
10109689
10103658
10106713
10102181
10106206
10107837
10107533
10105153
10108229
10104843
10109193
10109504
10109851
10104518
10108871
10102101
10104402
10107869
10105794
10107359
10107190
10109760
10103259
10105631
10103009
10108564
10107021
10105662
10107895
10107553
10107234
10107775
10102692
10107236
10109786
10104485
10107682
10107692
10104060
10107156
10106862
10102290
10105744
10105007
10102897
10108487
10108984
10108065
10107325
10105342
10103722
10108328
10104149
10104219
10107555
10104318
10109636
10106168
10108371
10102876
10108611
10106530
10106786
10104768
10104014
10104612
10104158
10106159
10109637
10109669
10105613
10105090
10105799
10102011
10105757
10104241
10103419
10103473
10104427
10107005
10104579
10105954
10107983
10105155
10108890
10104530
10109290
10105323
10104980
10103523
10109377
10107086
10103556
10104348
10108242
10103746
10107582
10104873
10103323
10105867
10105648
10109508
10104933
10102079
10105471
10104835
10109594
10103280
10104319
10109018
10108622
10107545
10105890
10106652
10107086
10108007
10103085
10106328
10108925
10103839
10103376
10108380
10104905
10107684
10104298
10109519
10103948
10103276
10102166
10108309
10106348
10107575
10104653
10108557
10108920
10107414
10106310
10104650
10105930
10105389
10104552
10109531
10108177
10106221
10107092
10106929
10109485
10107375
10106416
10109048
10109066
10107506
10105802
10103381
10108713
10107595
10105326
10106992
10104799
10106395
10105154
10106181
10104373
10103311
10104600
10106336
10107604
10102859
10102940
10106789
10107390
10107335
10108446
10107356
10109834
10102751
10106309
10104564
10108550
10106652
10103591
10105739
10102287
10106490
10106892
10105928
10103074
10109915
10109356
10102042
10107365
10109737
10107241
10102896
10103948
10106134
10105494
10106471
10105192
10104007
10109869
10103461
10108251
10109778
10107728
10108666
10103269
10103996
10103952
10106761
10106525
10108773
10106487
10109351
10104179
10108858
10105518
10108508
10105951
10105686
10106502
10105101
10108403
10105048
10109264
10103157
10102014
10107702
10103595
10103373
10103432
10108204
10105002
10108291
10107319
10107416
10103630
10104696
10106198
10103962
10107462
10103686
10106656
10103192
10107401
10108273
10105364
10106674
10105469
10104013
10105264
10106345
10109662
10107625
10106674
10104918
10108769
10107752
10108379
10103004
10107996
10102040
10109825
10108379
10105144
10107660
10107834
10108407
10106612
10104254
10109386
10104298
10109845
10104288
10107000
10106736
10107987
10109435
10108917
10104414
10102745
10105745
10102366
10106260
10106208
10107382
10104605
10105596
10102120
10103955
10104178
10104609
10105492
10109399
10106072
10105862
10107694
10109377
10103035
10108149
10109106
10107131
10105592
10107641
10106865
10103943
10105539
10106399
10106521
10106800
10104898
10105469
10104962
10107184
10109093
10103259
10103096
10108654
10104599
10102534
10105340
10102223
10102537
10109922
10102917
10106248
10108134
10102895
10107273
10103259
10103287
10109860
10104565
10108978
10109368
10102875
10105335
10104880
10104772
10102196
10102571
10109315
10103932
10106557
10103842
10109788
10107904
10102328
10109541
10108904
10107058
10108431
10103643
10107225
10107300
10104715
10107661
10107160
10107362
10104217
10105616
10104829
10102330
10104502
10103984
10107852
10104536
10107584
10102955
10105325
10104239
10106260
10108566
10107637
10107439
10104877
10108387
10109626
10109981
10108240
10107103
10103517
10105671
10107623
10102688
10103453
10104806
10108280
10108937
10102928
10109141
10109305
10105315
10106905
10108171
10102679
10104522
10105143
10103539
10107081
10108847
10105319
10106198
10103076
10104138
10103869
10102059
10107641
10109224
10106766
10106497
10106128
10103545
10102503
10108105
10105855
10104643
10104145
10104574
10107252
10107915
10103470
10106593
10103755
10108724
10105163
10102736
10107339
10105317
10103142
10108377
10109187
10102357
10104962
10106340
10104110
10108033
10109278
10108331
10103741
10109014
10108859
10109863
10106720
10106822
10109926
10109306
10108429
10105177
10105024
10106615
10102398
10104094
10108797
10104050
10106419
10107832
10102823
10103241
10105039
10108704
10106266
10107866
10104187
10107214
10108537
10103369
10106863
10106610
10104776
10107570
10108009
10103092
10102905
10103247
10108700
10105481
10102370
10106347
10108050
10105545
10103548
10103242
10103996
10104404
10108058
10109705
10106092
10106465
10104744
10107525
10105490
10102732
10106087
10105730
10103490
10107887
10106083
10107758
10105179
10107739
10107973
10108039
10107617
10107344
10109994
10107273
10105420
10109423
10106452
10108450
10102720
10102514
10104852
10109583
10103296
10109170
10107631
10104246
10108564
10103583
10106798
10103311
10105639
10109329
10102590
10102903
10106517
10104513
10108674
10105871
10104258
10102452
10102191
10106265
10106335
10106963
10103632
10109953
10107040
10103592
10109784
10105551
10108817
10109034
10107067
10108187
10103867
10108746
10102712
10107341
10108611
10102933
10104481
10108817
10105126
10102378
10107420
10104827
10108934
10109701
10102504
10107676
10105854
10102612
10107761
10106302
10109242
10106490
10104974
10102285
10109512
10108004
10106939
10106477
10107146
10103080
10105111
10105886
10106976
10104958
10105954
10104900
10108787
10109874
10107808
10106481
10109468
10105580
10105314
10105004
10109365
10106344
10105932
10106298
10106327
10105861
10106298
10102369
10103507
10102151
10108021
10105202
10102373
10104070
10105363
10105340
10106580
10105086
10103165
10103722
10104824
10103443
10106998
10109576
10102994
10105383
10109786
10107835
10106525
10102622
10108601
10104333
10105107
10109080
10105093
10102571
10103703
10106254
10102272
10105745
10109334
10107202
10105029
10102425
10108700
10104304
10103626
10103270
10105102
10109469
10106568
10109563
10102345
10104966
10103741
10103571
10108125
10103162
10102212
10103383
10108119
10102557
10108089
10108018
10107564
10102864
10106146
10102078
10106786
10106728
10103588
10107503
10106848
10102358
10104979
10108428
10109585
10102071
10109490
10104243
10107281
10107055
10104859
10108338
10109937
10105349
10102489
10109590
10106344
10109002
10102559
10107684
10102139
10105303
10104899
10109401
10104049
10102475
10107651
10105401
10104760
10109210
10105242
10105829
10105931
10105736
10103300
10108233
10109683
10104345
10105199
10107699
10109700
10103615
10104868
10109637
10102102
10107668
10104565
10107205
10106346
10108324
10106739
10105193
10107175
10106888
10107813
10104769
10107396
10102809
10104082
10103639
10102432
10103790
10104865
10103400
10105736

