7751
389999
399899
399989
489989
497999
498989
499979
578999
587999
589997
597899
598799
599699
659999
668999
669989
678989
688799
688889
688979
689699
689789
689879
689987
695999
696989
697979
769799
769997
777989
778979
779699
779879
788789
788897
789689
789959
789977
794999
796799
796889
797897
797987
798599
798887
799679
799859
799949
839999
858899
858989
859799
868799
868997
869879
877997
878699
878789
878987
879689
879797
884999
886799
886979
887987
888689
888779
888869
888887
888959
889589
889697
889769
889877
893999
895799
895889
896879
896897
897779
897887
898769
898787
899687
899849
899939
939989
948989
949889
949979
949997
956999
959879
959969
967979
968699
968879
968897
969599
969797
969869
969977
974999
975899
976799
977897
978599
978689
978797
979787
979949
985799
985979
985997
987599
987797
987869
988859
988877
989579
989687
989777
989939
994997
995699
995987
996599
996689
996887
997589
997769
997877
997949
998399
998687
998759
998957
999389
999749
999983
1199999
1299899
1299989
1389989
1397999
1478999
1488989
1489799
1489889
1489979
1489997
1498799
1498997
1499699
1577999
1579889
1579979
1587899
1588889
1589969
1596989
1597979
1598699
1598789
1598897
1599869
1599977
1658999
1669799
1669979
1677899
1678889
1678979
1687799
1688789
1688969
1688987
1689869
1695899
1695989
1696979
1697987
1698689
1698797
1698869
1699499
1699679
1699787
1699877
1749899
1757999
1758899
1758989
1769897
1769987
1776989
1777799
1778879
1779689
1779779
1786979
1786997
1787699
1789499
1789769
1789787
1795889
1795979
1796699
1796897
1796987
1797779
1798679
1798697
1798967
1799579
1799849
1799867
1838999
1847999
1849979
1856999
1857899
1858889
1859699
1865999
1866989
1867799
1867979
1868879
1868987
1875989
1878689
1878869
1878887
1878977
1879589
1879949
1879967
1885979
1886699
1887797
1888769
1889399
1889579
1889957
1892999
1896689
1896887
1896959
1897589
1897787
1897949
1898759
1898867
1899497
1899659
1899929
1899983
1929899
1946999
1947989
1948799
1957799
1957997
1958699
1958897
1959599
1959689
1966889
1967789
1967897
1968599
1968797
1968977
1969589
1969949
1969967
1973999
1974989
1975997
1976699
1976789
1976987
1977779
1978589
1978877
1979399
1979489
1979993
1984799
1984979
1985897
1985987
1986689
1986779
1986797
1986869
1987679
1987697
1988579
1988669
1988759
1989479
1989947
1991999
1993997
1994879
1994897
1995689
1995797
1995869
1995977
1996697
1996859
1996949
1997867
1997939
1998497
1998569
1998587
1998839
1998947
1999379
1999559
1999667
2369999
2379899
2379989
2388899
2389799
2389889
2398889
2399699
2399897
2469899
2469989
2478899
2488799
2489789
2496899
2499599
2499689
2499779
2559989
2569799
2569979
2577899
2577989
2578799
2586989
2587889
2587979
2587997
2588897
2588969
2589599
2589779
2589887
2595899
2596799
2596889
2597897
2598599
2598689
2598779
2599679
2599787
2599859
2639999
2649989
2657999
2658899
2658989
2667989
2668889
2669699
2669789
2669897
2669987
2678699
2678789
2679869
2679959
2684999
2685989
2686889
2686979
2687879
2687897
2687969
2688797
2688869
2688887
2688977
2689499
2689679
2689877
2694899
2695997
2696699
2697599
2697689
2697797
2697869
2697887
2697977
2698499
2698679
2698697
2698967
2699597
2699687
2699777
2699867
2739899
2759789
2759879
2767799
2768789
2768897
2769887
2775989
2776799
2776979
2777699
2777969
2778689
2778779
2779769
2779787
2779859
2779877
2779949
2783999
2785997
2786699
2786789
2786969
2787689
2787977
2788769
2789399
2789489
2789669
2789777
2789849
2789939
2789993
2794997
2795879
2796779
2796797
2796977
2797589
2797679
2798597
2798669
2798687
2798759
2798777
2798849
2798867
2799299
2799497
2799749
2799857
2799893
2799947
2828999
2829899
2848799
2849699
2857889
2858699
2859869
2859977
2865899
2867699
2868689
2868779
2868959
2868977
2869499
2869859
2869967
2873999
2876789
2876879
2877779
2877887
2878679
2878697
2878769
2879399
2879687
2879759
2883989
2884799
2885789
2887697
2888489
2888597
2889389
2889569
2889587
2889839
2889947
2895869
2895887
2896769
2896787
2896877
2896967
2897579
2898479
2898569
2898677
2898893
2898947
2898983
2899199
2899649
2899829
2899847
2899991
2919899
2919989
2939879
2948969
2948987
2949797
2949887
2956979
2957879
2957897
2958887
2959589
2959949
2959967
2963999
2965799
2965979
2966879
2966897
2966987
2967689
2967779
2967977
2968697
2968787
2968859
2968877
2968967
2969489
2969597
2969669
2969777
2969867
2974799
2974997
2975879
2976689
2976797
2977679
2977697
2978399
2978489
2979299
2979479
2979497
2979569
2979749
2981999
2982899
2986769
2986787
2986859
2986967
2987489
2987849
2988389
2988497
2988659
2988677
2988767
2989487
2989757
2989937
2991899
2993897
2994779
2994869
2995697
2996489
2997587
2997767
2997857
2997893
2997947
2998199
2998649
2998829
2998883
2998937
2998991
2999099
2999189
2999387
2999459
2999639
2999693
2999783
2999819
2999873
3098999
3179999
3189899
3199979
3199997
3278999
3288899
3289889
3289997
3296999
3297989
3298979
3299789
3299969
3377999
3379799
3379997
3387899
3388799
3388997
3389699
3389879
3395999
3398987
3399887
3399959
3458999
3459899
3467999
3476999
3478997
3479699
3479789
3479897
3487997
3488879
3488897
3488987
3489869
3494999
3496799
3496979
3497987
3498797
3498959
3499499
3499589
3499679
3499697
3499787
3499877
3499967
3557999
3559799
3559979
3567989
3569789
3569897
3577799
3577997
3578879
3578969
3579869
3579959
3586889
3586997
3587699
3587879
3588797
3588869
3589589
3596897
3597887
3597977
3598589
3598949
3598967
3629999
3648899
3648989
3649889
3667997
3668699
3668879
3668897
3668969
3669599
3669959
3675899
3675989
3676889
3677699
3677789
3677897
3678599
3678797
3678869
3678887
3678977
3679499
3679679
3679877
3679967
3686987
3687869
3688697
3688787
3688859
3688877
3688967
3689579
3689597
3689669
3689993
3694799
3694997
3695969
3696779
3696977
3697787
3697949
3698489
3698957
3699299
3699497
3699767
3699893
3699947
3719999
3729899
3729989
3739889
3747899
3748889
3749699
3749969
3756989
3758879
3758969
3759779
3759797
3759869
3767987
3768599
3769589
3769679
3769877
3769949
3773999
3774989
3775799
3776789
3777779
3777887
3778499
3778589
3778679
3778769
3778949
3779579
3779669
3779687
3779759
3779849
3785987
3786689
3786779
3787769
3787877
3787967
3788597
3788669
3789389
3789497
3789839
3789857
3789893
3794789
3794897
3795797
3795887
3795959
3795977
3796589
3796697
3797489
3797597
3797687
3797867
3797957
3797993
3798299
3798569
3798659
3798677
3798857
3798983
3799379
3799469
3799559
3799883
3799919
3799973
3819899
3829979
3829997
3837989
3838979
3839987
3847799
3848699
3848969
3849977
3855989
3856997
3859769
3859787
3865889
3866879
3866969
3867599
3867779
3867797
3868679
3869399
3869687
3869759
3869849
3869993
3874799
3874889
3874979
3875699
3875987
3876599
3876869
3876959
3877589
3877877
3878597
3878687
3878759
3878867
3878993
3879569
3879749
3879839
3879983
3882899
3885599
3885779
3886679
3886769
3886787
3887399
3887489
3887777
3887867
3887993
3888389
3888893
3889199
3889289
3889397
3889649
3889667
3889937
3892799
3892979
3894689
3894977
3895679
3895949
3895967
3896489
3896597
3896777
3896993
3897389
3897497
3897587
3897659
3897749
3898379
3898487
3898757
3898919
3898991
3899279
3899297
3899549
3899639
3899657
3899747
3899927
3899963
3899981
3918899
3919889
3928979
3928997
3929699
3929879
3929969
3935999
3936899
3938699
3938789
3938897
3939779
3939959
3944999
3946799
3946997
3947897
3947987
3948689
3948887
3949877
3955799
3955979
3957959
3958499
3958589
3958697
3958949
3959687
3959849
3959957
3963899
3964889
3965789
3966689
3966779
3966887
3967499
3967679
3967877
3968597
3968669
3968957
3969389
3969569
3969659
3969677
3969983
3973997
3974897
3974969
3974987
3975599
3975779
3975887
3976859
3976949
3977489
3977777
3977849
3977867
3978479
3978497
3978587
3978659
3978749
3978893
3979289
3979739
3979883
3981899
3983699
3983789
3983897
3984599
3985589
3985697
3985859
3986597
3986669
3987677
3987839
3988289
3988487
3988667
3988991
3989387
3989477
3989729
3989837
3989891
3989963
3991997
3992699
3992987
3993779
3993959
3994499
3994787
3995489
3995687
3995777
3996569
3996857
3997559
3997577
3997649
3997919
3998369
3998459
3998567
3998639
3998693
3998837
3999449
3999467
3999629
3999647
3999683
3999719
3999773
3999791
3999917
3999971
4099889
4179899
4196999
4198889
4269899
4279889
4287989
4288799
4288979
4289969
4295999
4296899
4296989
4299599
4299887
4299959
4368899
4368989
4377899
4379987
4387979
4387997
4388897
4388987
4389977
4397969
4398689
4398887
4398959
4399679
4449899
4458899
4459799
4468889
4468979
4469879
4469987
4478879
4478987
4487699
4487789
4487969
4488599
4488689
4488797
4489697
4489967
4494989
4495979
4496879
4498589
4498679
4498787
4498859
4499489
4499597
4538999
4539989
4549799
4556999
4558889
4559879
4559969
4565999
4568969
4569779
4569797
4569959
4569977
4576799
4576889
4576997
4577789
4578869
4579769
4579787
4579859
4579877
4585979
4586969
4586987
4587599
4588499
4588697
4588769
4588949
4588967
4589759
4592999
4595879
4595897
4597499
4597589
4597679
4597787
4597949
4598579
4598939
4599587
4599659
4599677
4599857
4599929
4599983
4628999
4638899
4639799
4639979
4648799
4648979
4648997
4656989
4657997
4659689
4659797
4666889
4666979
4666997
4667699
4667969
4668779
4669589
4669697
4669949
4674899
4677599
4677779
4678679
4678967
4679489
4679579
4679687
4679849
4679867
4682999
4685699
4685789
4685969
4685987
4686599
4687499
4687679
4687769
4687967
4688669
4688759
4688777
4688867
4688993
4689299
4689389
4689947
4694699
4694969
4695797
4696859
4696877
4698299
4698479
4698497
4698569
4698677
4698767
4698857
4698893
4698983
4699757
4699991
4718999
4719989
4727999
4728989
4729799
4729979
4737899
4739699
4739879
4747889
4747997
4748699
4749779
4754999
4755899
4758959
4759679
4759697
4759787
4764989
4765997
4767779
4768679
4768769
4768877
4769669
4769759
4769867
4769957
4776599
4776689
4776887
4776977
4777499
4777679
4777769
4777967
4778399
4778489
4778759
4778777
4778993
4779497
4782989
4783979
4783997
4784699
4786697
4787597
4787669
4787957
4788389
4788569
4788767
4788929
4789199
4789487
4789559
4789667
4789739
4789793
4789973
4789991
4790999
4792889
4793879
4793897
4793969
4795787
4796399
4796993
4797389
4797497
4797659
4797677
4797857
4798379
4798649
4798793
4798919
4799189
4799279
4799369
4799477
4799693
4799783
4799909
4799981
4818899
4819799
4819889
4827899
4827989
4828979
4828997
4829789
4829969
4836989
4837997
4838699
4838789
4839797
4839977
4845899
4845989
4847699
4847897
4847987
4848869
4848959
4849589
4849697
4849787
4849967
4853999
4854989
4857959
4858499
4858859
4858949
4858967
4859597
4859759
4859957
4859993
4864889
4865699
4865969
4866599
4866977
4867949
4868597
4868687
4868993
4869479
4869659
4869749
4869929
4873997
4874879
4875779
4875797
4875887
4876877
4877489
4877669
4877849
4877867
4878299
4878767
4878893
4879397
4879739
4879829
4879883
4879937
4882979
4883699
4883789
4883987
4884779
4884977
4886489
4886597
4886669
4886867
4887299
4887587
4887893
4887929
4887947
4888199
4888379
4888487
4888577
4888649
4888739
4888973
4889279
4889369
4889477
4889567
4889747
4889891
4889981
4891889
4891979
4892897
4893599
4893689
4893869
4894499
4894697
4895399
4895777
4895993
4896497
4896569
4896659
4897199
4897379
4897397
4897469
4897559
4897577
4897757
4897847
4897973
4898099
4898297
4898459
4898549
4898657
4898819
4898981
4899197
4899467
4899593
4899647
4899683
4899737
4899809
4899863
4899971
4917989
4918799
4918997
4919699
4927799
4928879
4929599
4929887
4935989
4937879
4938599
4938779
4938887
4939679
4939769
4939787
4939859
4944899
4947779
4947797
4947959
4948679
4948859
4949489
4949579
4949597
4949939
4953899
4954799
4954979
4955987
4956599
4956977
4957769
4958399
4958579
4958957
4959389
4959497
4959569
4959587
4959947
4962989
4964699
4964789
4964879
4965599
4965689
4965869
4965959
4966697
4967579
4967687
4967777
4967867
4967993
4968479
4968857
4969199
4969649
4969793
4969847
4969883
4969973
4973897
4974779
4974887
4975589
4975769
4975787
4975877
4976687
4976849
4977569
4977659
4977767
4977893
4978199
4978397
4978487
4978559
4978577
4978829
4978847
4978937
4978973
4979279
4979693
4979837
4982897
4983599
4983689
4983887
4983959
4983977
4984589
4984949
4985399
4985489
4985597
4985993
4986299
4986677
4986767
4986893
4986983
4987397
4987667
4987793
4987847
4987973
4988099
4988189
4988369
4988657
4988891
4988927
4989287
4989359
4989377
4989773
4989863
4989917
4989953
4991879
4993679
4993949
4994669
4994993
4995299
4995479
4995983
4996289
4996559
4996757
4996883
4996919
4996991
4997297
4997387
4997549
4997567
4997747
4997891
4997981
4998089
4998359
4998467
4998557
4998647
4998683
4998971
4999097
4999187
4999439
4999457
4999493
4999529
4999637
4999727
4999781
4999871
4999961
5088989
5096999
5098799
5098979
5099879
5099987
5178989
5179997
5188979
5197889
5198789
5199797
5199959
5258999
5268899
5287979
5289797
5289887
5289959
5296799
5296997
5297879
5298779
5298977
5299787
5349899
5349989
5357999
5368997
5375999
5377979
5377997
5378699
5385899
5388689
5388797
5388869
5396879
5397599
5398499
5398697
5398949
5399579
5399777
5399939
5399993
5439899
5448899
5458799
5459789
5459879
5467799
5469689
5469887
5474999
5476799
5477789
5478779
5479697
5479787
5483999
5486879
5487689
5487959
5488589
5488787
5488949
5489399
5489597
5489867
5493899
5493989
5494997
5495969
5496599
5496779
5497697
5497949
5498399
5498849
5498993
5499587
5499677
5499749
5499839
5499929
5529899
5538989
5539799
5539889
5539997
5546999
5548979
5548997
5549879
5549897
5557889
5558699
5558879
5566997
5567987
5568977
5569589
5569859
5573999
5576699
5576789
5576897
5577797
5577959
5577977
5578589
5579579
5579669
5579957
5579993
5582999
5583899
5584889
5585969
5586599
5587499
5587697
5587859
5589497
5589587
5589659
5589677
5589767
5589893
5589929
5595599
5596499
5596949
5597597
5597687
5597759
5597849
5597939
5598497
5598767
5598947
5599289
5599379
5599577
5599667
5599829
5599973
5628899
5629889
5637899
5638799
5639969
5646899
5649599
5649779
5649977
5656799
5656997
5657699
5657789
5657969
5658869
5658959
5659859
5659877
5665997
5666789
5666987
5667689
5667869
5669579
5669759
5669777
5672999
5675987
5676887
5677589
5678489
5678669
5678957
5678993
5679299
5679677
5679749
5679983
5682899
5683889
5684699
5684969
5685689
5685887
5686949
5687687
5687867
5687993
5688479
5688497
5688569
5688929
5688983
5689289
5689757
5689793
5689847
5689973
5689991
5691899
5693969
5695499
5695769
5695787
5695967
5696399
5696489
5696759
5696849
5697677
5697983
5698289
5698379
5698577
5698739
5698829
5698883
5699819
5699873
5699909
5699927
5699963
5708999
5718899
5718989
5728997
5729897
5729987
5737889
5738699
5739779
5739869
5739887
5739977
5746889
5747699
5747879
5748959
5749589
5749949
5749967
5753999
5754989
5756789
5756987
5758589
5758679
5759399
5759597
5759687
5759759
5764799
5765699
5766599
5766779
5766977
5767499
5767589
5767877
5768669
5768957
5768993
5769587
5769677
5769857
5772989
5774987
5776679
5776877
5776949
5777489
5777939
5778659
5778767
5778893
5779199
5779577
5779649
5779793
5783969
5784599
5784869
5784959
5785589
5785859
5786867
5787389
5787479
5787767
5787983
5788793
5788829
5788919
5789657
5789747
5789891
5789909
5789981
5790899
5792789
5792879
5793779
5794697
5794769
5794787
5795579
5795849
5795957
5796893
5796929
5797199
5797397
5797469
5797487
5797559
5797919
5798099
5798189
5798279
5798459
5798549
5798567
5798729
5798981
5799179
5799359
5799557
5799953
5808899
5808989
5817899
5819699
5819789
5819969
5819987
5825999
5827979
5828789
5828897
5829779
5829869
5834999
5836799
5836889
5836997
5837879
5838689
5838779
5838797
5838887
5838977
5839697
5839949
5844899
5845799
5846987
5847689
5847797
5848589
5848679
5848859
5849579
5849687
5849867
5849939
5849993
5852999
5853989
5854799
5854889
5855699
5855897
5856689
5856797
5857499
5857967
5858579
5858687
5859299
5859569
5859677
5859767
5859947
5863889
5865599
5865779
5865887
5866769
5867399
5867489
5867597
5867777
5867957
5867993
5868479
5868677
5868767
5869289
5869469
5869667
5869739
5870999
5873897
5874977
5875589
5876399
5876579
5876597
5876687
5876867
5876957
5876993
5877299
5877587
5877659
5877929
5877947
5877983
5878289
5878559
5878739
5879369
5879387
5879693
5881979
5882879
5883599
5884589
5884787
5884877
5885777
5885993
5886659
5886677
5886767
5886857
5886929
5887289
5887487
5887577
5887649
5887757
5888369
5888639
5888657
5888693
5888873
5888963
5889269
5889467
5889539
5889683
5889809
5889881
5889953
5889971
5890889
5890979
5891789
5892599
5892959
5892977
5893697
5893859
5894849
5894957
5895299
5895389
5895479
5895767
5895893
5896379
5896829
5897279
5897387
5897477
5897819
5897981
5898197
5898287
5898539
5898593
5899079
5899259
5899457
5899529
5899547
5899763
5899853
5907989
5909789
5909879
5909987
5915999
5918699
5918789
5918879
5919779
5919869
5919959
5925989
5926889
5926979
5927699
5927897
5928959
5929697
5929967
5934899
5935889
5936897
5936969
5937599
5937959
5937977
5938589
5938787
5939777
5939849
5939993
5946797
5946869
5946887
5947499
5947679
5947769
5948399
5948777
5948867
5948939
5949857
5949929
5953799
5953889
5954789
5954969
5955959
5956697
5956787
5956967
5958299
5958389
5958569
5958749
5958767
5958839
5958893
5958929
5958947
5959199
5959397
5959487
5959739
5959937
5959973
5964599
5964887
5965697
5965877
5966579
5966669
5966993
5967749
5967839
5967893
5967947
5968199
5968379
5968883
5968973
5969279
5969657
5969729
5969927
5970989
5971799
5972699
5973599
5974697
5974877
5975597
5976497
5976569
5976749
5976947
5977199
5977289
5977379
5977397
5977469
5977487
5977649
5977667
5977739
5977847
5977991
5978279
5978639
5978657
5978783
5978891
5978909
5979179
5979269
5979377
5979593
5979629
5979773
5979917
5981879
5982689
5982869
5983877
5984399
5984579
5984597
5984687
5984777
5984939
5985389
5985587
5985659
5985677
5985929
5985983
5986559
5986793
5986829
5986991
5987477
5987549
5987693
5987819
5987873
5988197
5988467
5988557
5988737
5988791
5989259
5989349
5989367
5989439
5989493
5989547
5989619
5989673
5989691
5989817
5989853
5989871
5991779
5991977
5992697
5992859
5993579
5993597
5993849
5993993
5994767
5994839
5995397
5995973
5995991
5996099
5996477
5996657
5996729
5997197
5997359
5997377
5997647
5997791
5998079
5998277
5998367
5998439
5998583
5998673
5998691
5998709
5998763
5998871
5998907
5999177
5999267
5999393
5999519
5999537
5999627
5999663
5999681
5999717
5999933
6069989
6077999
6078899
6079979
6086999
6096899
6097997
6098789
6099887
6099959
6168989
6176999
6177989
6179699
6179969
6187799
6187889
6188789
6189977
6195899
6197897
6199499
6199859
6199877
6248999
6249899
6249989
6258899
6259889
6268979
6269699
6269969
6269987
6275999
6277889
6278879
6278897
6279797
6285899
6287789
6287969
6288797
6288977
6289499
6289697
6289967
6293999
6294989
6296789
6297689
6297779
6297869
6298697
6298949
6299669
6299957
6338999
6339899
6339989
6348899
6349997
6358889
6358997
6359789
6359897
6359987
6366989
6369887
6375989
6376889
6379859
6383999
6385997
6387977
6388859
6389489
6389687
6389777
6389849
6389993
6392999
6394799
6395699
6395969
6396869
6397697
6397949
6398597
6398759
6398867
6399587
6399677
6399929
6399947
6439997
6447899
6447989
6448889
6448979
6449897
6456899
6458897
6459797
6466799
6467789
6467969
6468887
6468977
6469949
6474899
6476699
6476879
6476969
6477599
6478499
6478949
6479489
6483989
6484799
6484889
6484979
6485987
6486797
6486869
6486959
6488687
6488777
6488939
6489299
6489389
6489569
6489677
6489839
6489893
6489983
6494987
6495779
6496859
6497399
6497957
6498299
6498497
6498659
6498839
6499289
6499379
6499397
6499667
6499793
6499991
6529979
6537899
6537989
6538979
6538997
6547979
6548879
6548897
6549689
6549797
6556799
6558599
6558689
6559859
6566969
6567779
6567887
6568589
6568697
6568787
6568967
6569579
6569867
6569957
6569993
6574889
6574979
6575879
6575897
6575969
6576599
6576797
6577499
6577679
6577787
6578399
6578597
6578669
6578777
6578849
6578867
6578939
6579479
6579767
6579929
6584789
6584987
6585869
6586589
6587489
6587579
6588389
6588767
6588893
6588947
6588983
6589883
6591899
6591989
6592997
6593897
6594869
6595859
6595877
6596399
6596489
6596957
6597677
6597893
6598199
6598289
6598649
6598667
6598829
6599297
6599477
6599639
6599819
6599891
6599963
6599981
6609989
6619799
6619889
6626999
6627899
6627989
6629897
6629969
6636989
6637979
6637997
6647987
6648599
6648977
6649589
6649859
6655889
6655997
6656879
6656987
6657779
6657797
6657887
6658697
6658787
6658859
6659399
6659579
6659687
6659777
6659957
6664979
6664997
6665987
6666599
6666689
6666797
6666977
6667589
6667949
6668687
6668759
6668939
6668957
6669587
6669857
6669947
6669983
6672899
6673889
6675869
6675959
6676697
6676949
6677399
6677579
6677597
6677777
6678767
6678839
6678929
6679199
6679289
6679397
6679667
6679919
6681989
6684779
6684869
6684959
6685499
6685697
6685787
6685859
6686489
6686777
6687389
6687497
6687767
6687983
6688559
6688757
6688793
6688919
6689099
6689567
6689873
6689909
6690899
6690989
6691799
6692897
6693689
6693887
6694769
6694949
6695489
6695687
6695993
6696479
6696587
6696839
6696857
6697199
6697487
6697667
6697973
6698099
6698189
6698477
6698567
6698729
6698981
6699089
6699197
6699269
6699827
6699881
6707999
6709889
6709979
6717899
6718889
6718997
6719789
6719897
6719969
6726989
6736799
6737789
6737987
6738689
6738887
6738959
6739877
6745979
6745997
6746969
6747599
6747779
6747887
6747959
6748787
6749399
6749759
6754799
6754889
6755699
6755897
6756689
6757589
6757679
6757967
6758489
6758579
6758777
6758867
6758957
6759479
6759569
6759947
6759983
6763979
6763997
6764897
6765959
6765977
6766499
6767489
6767687
6767867
6768569
6768659
6768947
6769289
6769379
6769487
6769559
6769649
6769793
6769937
6769991
6774797
6777299
6777497
6777569
6777839
6778379
6778397
6778469
6778559
6778829
6778973
6779099
6779189
6779459
6779567
6779639
6779657
6779693
6779783
6779837
6780989
6781799
6782969
6783797
6783869
6784499
6784697
6784769
6784787
6785939
6786749
6786839
6786929
6787289
6787577
6788099
6788387
6788459
6788477
6788891
6788963
6788981
6789089
6789269
6789287
6789359
6789557
6789737
6789773
6790799
6790997
6791699
6792959
6792977
6793499
6793877
6794597
6794687
6794993
6795587
6795857
6795983
6796199
6796487
6796577
6796649
6796847
6796883
6796919
6796973
6797369
6797387
6797477
6797639
6797729
6797873
6797891
6797927
6797963
6797981
6798089
6798359
6798377
6798647
6798683
6798719
6798809
6798863
6798917
6798971
6799367
6799619
6799781
6799907
6808889
6808979
6818969
6819797
6819887
6819977
6825989
6827699
6827969
6828599
6828779
6828869
6829967
6833999
6835979
6836969
6836987
6837869
6837977
6838589
6839489
6839669
6839849
6839939
6843899
6843989
6845897
6846599
6847499
6847949
6848867
6848939
6848957
6849389
6849497
6849569
6849659
6849677
6849767
6849893
6853997
6854789
6854987
6855869
6855887
6856589
6856697
6857489
6857687
6857759
6857777
6857849
6857957
6858479
6858749
6858947
6858983
6859199
6859289
6859379
6859469
6859577
6859667
6859739
6859757
6859847
6859973
6859991
6860999
6862979
6863897
6864779
6865499
6865679
6865697
6865769
6865949
6865967
6866777
6866957
6867389
6867479
6867587
6868649
6868739
6868991
6869189
6869459
6869729
6869909
6869927
6871979
6872897
6874499
6874787
6874877
6874949
6875579
6875867
6875993
6876587
6876659
6876677
6876767
6876983
6877649
6877847
6877883
6877919
6878099
6878369
6878567
6878639
6878657
6878891
6878981
6879683
6880997
6882779
6882797
6884489
6884777
6884939
6884993
6885479
6885587
6885677
6886469
6886577
6886739
6886757
6886883
6886937
6886973
6887927
6888197
6888269
6888359
6888377
6888467
6888647
6888683
6888719
6888737
6888809
6888953
6888971
6889079
6889367
6889529
6889637
6889853
6890699
6890789
6890969
6891869
6891887
6892499
6892679
6892859
6893669
6893867
6894479
6894983
6895289
6895397
6895487
6895739
6895937
6895991
6896459
6896657
6896783
6896909
6896963
6897557
6897719
6897827
6898097
6898187
6898547
6898637
6898817
6898907
6899069
6899339
6899429
6899447
6899483
6899537
6899573
6899663
6899951
6906989
6907799
6908789
6908897
6908969
6909887
6916799
6917879
6918599
6918689
6918959
6919499
6919769
6919967
6925799
6925889
6926987
6927689
6927797
6927887
6928679
6928949
6929759
6929939
6932999
6935699
6935879
6935897
6936779
6936959
6936977
6937877
6937949
6937967
6938579
6938777
6938849
6938993
6939677
6939749
6942989
6943889
6944699
6945779
6945959
6946769
6946949
6947489
6947669
6947777
6947867
6947957
6948299
6948479
6948569
6948659
6948947
6949199
6949469
6949577
6949793
6951899
6952997
6953699
6953789
6953879
6953897
6954797
6954977
6955589
6955877
6956399
6956597
6956687
6957389
6957497
6958379
6958487
6958649
6958667
6958829
6958937
6959279
6959297
6959369
6959549
6959891
6961979
6963797
6964499
6964787
6964949
6965759
6965867
6965939
6966569
6966929
6966983
6967469
6967559
6967577
6967757
6967937
6968567
6968693
6968873
6968891
6968909
6968981
6969089
6969359
6969449
6969629
6969647
6969791
6969917
6969971
6970889
6971897
6972689
6973679
6973787
6973877
6974399
6974489
6974687
6974867
6974939
6975497
6975587
6975659
6975929
6976289
6976379
6976577
6977279
6977297
6977639
6977891
6978287
6978467
6978593
6978809
6979187
6979277
6979439
6979493
6979529
6979727
6979781
6979853
6979871
6979943
6979961
6980969
6981599
6981959
6981977
6983579
6983597
6983993
6984587
6984983
6985397
6985829
6985883
6985973
6986297
6986729
6986783
6986891
6986909
6986981
6987359
6987557
6987593
6987683
6987719
6987737
6987863
6987971
6988169
6988367
6988439
6988691
6988763
6988871
6988907
6989249
6989267
6989357
6989429
6989519
6989537
6989573
6989627
6989933
6990959
6991877
6991967
6992849
6992957
6993299
6993479
6993677
6993839
6993893
6994289
6994469
6994487
6994577
6994649
6994847
6994919
6995189
6995567
6995693
6995837
6995909
6995927
6996089
6996377
6996629
6997097
6997259
6997349
6997457
6997619
6997817
6998087
6998177
6998267
6998357
6998393
6998447
6998627
6998681
6998861
6998933
6999059
6999077
6999491
7069889
7076999
7078889
7078979
7079879
7085999
7086899
7087799
7087889
7088699
7088897
7089779
7095899
7096889
7096997
7098599
7098797
7098887
7098977
7099769
7099877
7099949
7139999
7149899
7157999
7159799
7177979
7177997
7178987
7179779
7185989
7186799
7187897
7187987
7188689
7189859
7194899
7194989
7195997
7196789
7196897
7197779
7197977
7198589
7199579
7199957
7238999
7239899
7249889
7249997
7256999
7257989
7259897
7267889
7268969
7269869
7269959
7276889
7276979
7277987
7278599
7278779
7278959
7279499
7283999
7284899
7285997
7286969
7288499
7288877
7288949
7289669
7289687
7289993
7293899
7293989
7294799
7295699
7295987
7296869
7296959
7297967
7298399
7298597
7298849
7298867
7298939
7298957
7299587
7329899
7329989
7349879
7349897
7356989
7357979
7358969
7358987
7359887
7359959
7364999
7365899
7365989
7366979
7368689
7368869
7369679
7369949
7373999
7374989
7375997
7376879
7379399
7379759
7384799
7385897
7385969
7386779
7387967
7388669
7388993
7389659
7389839
7389929
7391999
7394879
7394897
7394987
7395797
7396679
7396859
7396967
7397399
7397777
7397867
7397993
7398389
7398569
7398929
7399289
7399577
7399649
7399883
7428899
7438997
7439699
7447799
7447889
7447997
7448699
7456997
7457987
7458797
7458959
7459679
7459877
7459967
7465979
7466699
7466969
7467959
7468679
7468697
7468787
7469669
7469939
7469993
7474799
7474889
7474979
7475789
7476779
7477499
7477787
7478579
7479299
7479497
7479839
7479929
7483979
7484699
7485689
7485869
7486499
7486877
7487687
7487759
7488479
7488659
7488893
7488947
7489649
7489739
7489829
7489847
7489919
7492799
7493879
7494869
7494959
7495679
7496579
7496939
7497587
7497767
7498199
7498289
7498577
7498739
7498937
7499369
7499693
7499729
7499747
7499819
7499981
7518989
7519997
7528799
7528979
7529699
7529987
7535999
7537799
7538969
7538987
7539869
7539977
7545899
7547699
7547987
7548599
7548869
7548977
7549697
7549877
7556987
7557887
7558769
7558877
7558949
7559399
7559759
7559957
7562999
7563989
7566599
7568399
7568489
7568777
7568849
7568993
7569299
7569389
7569659
7569839
7569857
7569893
7572899
7572989
7574789
7574969
7575779
7576697
7576769
7576949
7577777
7577849
7578479
7578677
7578749
7579577
7579829
7579937
7579973
7580999
7581989
7582997
7583699
7583789
7583879
7583969
7584977
7585499
7585967
7586399
7586597
7586687
7586867
7586939
7586993
7587497
7587659
7588199
7588793
7588829
7589279
7589369
7589639
7589657
7589783
7589963
7591799
7591889
7592789
7592969
7592987
7593689
7593779
7593959
7594787
7594859
7594877
7594949
7595849
7595867
7596299
7596497
7596587
7596839
7596857
7596947
7596983
7597757
7597829
7597847
7598189
7598477
7598693
7598837
7598873
7599287
7599539
7599593
7599773
7599971
7609799
7618889
7619699
7619789
7619897
7627799
7627889
7627979
7628897
7628987
7629959
7634999
7635899
7636997
7637969
7638689
7639589
7639859
7644899
7645889
7645997
7646699
7646789
7646897
7647599
7648499
7648877
7648967
7649489
7649849
7649867
7655789
7655897
7656689
7656959
7657679
7657877
7657967
7658579
7658597
7658669
7658867
7658939
7659569
7659749
7659893
7659929
7666787
7666859
7668299
7668389
7668587
7668677
7668839
7668893
7669667
7669793
7669847
7671899
7672799
7673969
7674869
7674977
7675589
7675769
7675949
7676579
7676597
7676849
7676939
7676957
7677569
7677587
7677893
7678379
7678397
7678667
7679099
7679459
7679747
7679873
7679927
7679963
7679981
7680989
7681799
7681889
7682789
7682879
7684769
7684877
7685669
7685687
7685759
7685849
7686857
7686893
7686947
7686983
7687289
7687487
7687739
7687793
7687829
7687847
7687919
7687937
7687991
7688189
7688297
7688459
7688729
7688963
7689197
7689359
7689467
7689557
7689629
7689719
7689827
7689863
7689881
7689917
7689971
7691897
7692599
7692869
7692887
7692977
7693589
7693769
7693967
7694579
7694669
7694993
7695299
7695749
7695929
7696739
7697099
7697189
7697279
7697477
7697567
7697639
7697693
7697819
7697909
7698179
7698269
7698377
7698539
7698737
7698791
7698863
7698917
7699259
7699547
7699673
7699781
7699961
7709699
7709879
7715999
7716899
7717889
7718897
7719689
7719869
7724999
7726889
7727789
7727969
7728599
7728689
7728797
7729697
7737689
7738589
7738697
7738877
7738967
7739597
7739687
7739759
7744889
7745789
7746689
7746779
7747499
7747589
7747787
7748579
7748669
7748687
7749299
7749479
7749767
7749839
7749947
7752989
7753799
7754897
7754969
7754987
7755779
7755959
7756499
7756787
7756967
7757579
7757597
7758857
7758929
7758983
7759379
7759469
7759649
7759883
7759991
7760999
7761989
7764599
7764797
7764959
7765859
7765949
7766777
7766849
7767479
7767497
7767569
7767659
7768379
7768487
7768577
7769549
7769639
7769693
7769819
7769891
7770899
7771997
7772789
7772879
7773599
7774499
7775399
7775597
7775759
7776389
7776569
7776749
7776929
7776983
7777397
7777487
7777667
7777919
7778189
7778279
7778549
7778747
7778783
7778891
7778963
7779197
7779377
7779593
7779719
7779809
7779881
7780889
7781897
7781987
7782689
7782779
7783877
7783967
7784669
7784687
7784867
7784993
7785389
7785749
7786577
7786739
7786829
7786847
7787189
7787657
7787837
7787963
7787981
7788089
7788593
7788953
7789079
7789367
7789583
7789619
7789871
7790897
7791977
7792769
7792859
7793759
7793777
7793957
7794569
7794929
7794947
7795379
7795397
7795559
7795649
7795883
7796189
7796549
7796567
7796639
7796963
7796981
7797287
7797359
7797593
7797683
7797737
7797953
7798097
7798457
7798547
7798619
7798673
7798727
7798907
7798961
7799069
7799339
7799573
7799843
7799951
7808699
7808789
7808897
7809689
7809797
7809869
7815989
7816799
7816997
7817879
7818599
7818869
7818887
7818977
7819787
7825889
7825997
7826699
7827959
7828697
7829399
7829489
7832999
7833989
7834889
7836599
7836887
7837679
7837769
7837967
7838489
7838669
7838687
7838759
7839479
7839857
7843799
7844897
7844987
7845779
7845797
7845977
7846679
7847579
7847597
7847759
7847993
7848479
7848569
7848749
7848839
7849379
7849397
7849649
7849847
7849991
7851989
7852979
7853987
7854599
7854689
7854797
7854887
7855697
7856399
7856579
7856687
7856759
7856867
7856939
7856957
7857389
7857569
7857947
7858577
7858793
7858937
7858973
7859099
7859297
7859549
7859639
7859981
7860989
7863689
7864589
7864697
7864949
7865489
7865687
7866389
7866479
7866497
7866659
7867469
7867649
7867793
7867973
7868099
7868477
7868747
7869359
7869467
7869593
7869683
7869791
7869881
7872797
7872869
7873589
7873787
7874777
7874849
7874939
7875299
7875389
7875983
7876397
7876829
7876937
7877099
7877369
7877693
7877747
7877819
7877873
7877981
7878197
7878359
7878791
7878809
7878917
7879169
7879637
7879727
7879871
7880879
7880969
7881689
7881959
7881977
7882697
7882877
7883399
7884299
7884857
7884893
7884983
7885289
7885379
7885649
7885919
7885973
7886189
7886297
7886639
7886693
7886783
7886819
7887359
7887557
7887629
7887647
7887773
7887809
7887953
7888169
7888259
7888367
7888547
7888583
7888619
7888637
7888817
7889249
7889627
7889663
7889681
7889771
7890797
7890959
7891589
7891769
7891787
7892579
7892597
7892849
7892939
7892957
7894577
7894793
7894829
7894883
7894973
7895387
7895477
7895549
7895729
7895747
7896089
7896179
7896197
7896593
7896719
7896773
7896809
7896827
7897619
7897691
7897727
7897817
7897907
7897961
7898069
7898159
7898339
7898393
7898447
7898519
7898663
7898753
7898843
7899239
7899473
7899581
7899743
7899851
7904999
7906799
7906889
7907897
7908977
7909589
7909859
7909949
7914899
7916879
7916897
7917599
7917887
7918499
7918697
7919579
7919669
7919687
7919939
7919993
7924799
7925699
7925789
7925969
7926869
7926887
7926977
7927589
7927697
7927859
7928849
7928939
7929749
7929983
7934987
7935887
7935959
7936769
7936949
7936967
7937399
7937597
7937777
7937939
7938569
7938767
7938839
7938857
7938893
7938929
7939829
7939847
7942799
7942997
7944779
7944887
7945697
7945967
7946489
7946777
7947587
7947677
7947767
7947839
7947983
7948487
7948667
7948757
7948883
7948991
7949297
7949369
7949639
7949873
7949891
7952897
7952969
7953689
7953797
7955399
7955489
7955579
7955687
7956587
7956857
7956947
7956983
7957577
7957667
7957739
7957847
7957973
7957991
7958099
7958189
7958459
7958693
7958837
7958927
7959089
7959197
7959269
7959719
7959827
7959971
7961879
7962797
7962887
7963499
7963859
7964939
7965479
7965497
7965677
7966199
7966379
7966397
7966559
7967459
7967657
7967819
7967909
7967963
7968449
7968539
7968593
7968683
7968773
7968791
7969187
7969349
7969439
7969547
7969673
7969727
7969781
7969853
7969943
7969961
7970987
7971959
7972499
7972589
7972967
7973489
7973687
7974299
7974587
7974677
7974893
7974929
7975199
7975559
7975577
7975739
7975883
7975937
7975973
7976279
7976369
7976477
7976567
7976693
7976873
7976963
7977197
7977287
7977737
7977863
7977971
7978169
7978367
7978547
7978637
7978709
7978781
7978871
7978961
7979249
7979267
7979357
7979663
7979717
7979771
7980689
7981859
7981877
7981949
7982867
7982957
7983299
7983893
7983929
7983947
7984649
7984793
7984829
7985099
7985279
7985297
7985387
7985657
7985729
7985927
7986179
7986197
7986269
7986557
7986647
7986683
7986827
7986917
7987439
7987457
7987781
7988177
7988339
7988537
7988573
7988627
7988663
7988753
7989419
7989437
7989491
7989563
7989617
7989851
7990589
7990877
7991579
7991759
7991777
7991939
7991957
7991993
7992659
7992767
7992857
7993199
7993289
7993577
7993883
7994279
7994729
7994873
7994927
7995269
7995557
7995629
7995683
7995773
7995791
7995809
7995863
7995917
7996097
7996187
7996259
7996277
7996367
7996619
7996691
7996727
7996871
7997159
7997357
7997393
7997447
7997519
7997663
7997933
7998059
7998077
7998167
7998293
7998383
7998437
7998491
7998509
7998743
7998941
7999283
7999319
7999463
7999913
8049989
8058899
8069879
8075999
8077799
8078699
8078897
8079779
8079887
8079977
8086889
8087879
8087969
8088869
8089769
8089967
8095799
8095889
8095979
8097599
8097779
8097977
8098697
8099849
8129999
8147999
8149979
8169599
8175899
8176979
8177699
8177789
8177879
8178959
8178977
8179679
8185799
8186987
8187887
8188769
8188949
8188967
8189579
8189777
8189939
8189957
8192999
8194889
8194997
8195699
8195969
8196599
8196689
8196779
8196887
8196959
8197967
8198669
8198759
8199497
8199677
8199767
8199857
8239997
8249699
8257889
8258969
8259869
8259887
8264999
8265989
8266889
8266997
8267789
8268779
8269589
8269967
8275997
8279399
8279489
8279597
8279669
8284889
8284979
8285789
8286689
8286977
8287679
8287859
8288597
8288669
8288849
8288957
8289587
8289767
8289857
8293889
8293979
8294879
8295977
8297669
8298659
8298749
8299649
8299667
8299793
8299919
8309999
8327999
8328899
8328989
8337899
8339987
8347979
8348699
8348969
8349599
8349977
8354999
8358599
8358797
8359499
8359679
8359697
8364899
8365979
8366789
8367959
8368589
8369399
8369489
8369579
8369687
8369759
8369849
8372999
8374979
8375897
8375987
8377697
8377877
8377949
8379299
8379389
8384969
8385887
8386769
8386949
8387867
8387957
8387993
8388587
8388857
8388929
8389559
8389793
8389883
8389919
8389937
8389973
8390999
8392799
8392997
8393969
8394689
8394779
8394797
8394887
8395769
8396777
8396849
8397839
8397947
8398199
8398739
8398757
8398883
8398937
8399099
8399189
8399297
8399459
8399477
8399837
8399873
8399927
8409899
8417999
8429699
8429789
8436899
8437889
8438699
8439887
8446979
8447897
8447987
8448689
8448959
8449499
8449769
8449877
8449967
8453999
8456879
8456969
8457599
8457887
8458679
8458949
8464889
8464979
8465789
8467499
8467769
8468399
8468687
8468777
8468849
8469677
8469767
8472899
8473889
8475689
8476697
8477687
8477867
8477957
8478497
8478893
8478929
8478947
8479199
8479649
8479829
8479883
8479937
8482979
8483789
8483879
8483897
8484689
8484797
8485679
8485769
8485859
8485877
8485949
8486399
8486759
8486993
8487389
8487569
8487587
8488199
8488289
8488379
8488397
8488829
8488919
8489639
8489729
8489891
8489927
8490899
8493869
8493959
8493977
8494769
8495687
8495849
8495957
8496479
8496749
8496893
8497289
8497469
8497757
8497847
8497991
8498099
8498297
8498549
8498837
8498873
8499089
8499287
8499377
8499629
8499683
8499773
8499917
8499971
8508989
8509799
8518889
8518997
8519789
8519897
8528789
8528879
8528969
8529779
8529959
8537699
8538599
8538689
8538779
8538797
8538869
8538977
8539679
8543999
8546969
8547887
8548697
8548769
8548949
8549579
8549777
8553989
8556869
8556887
8556959
8557589
8557859
8558399
8558489
8558687
8558777
8558867
8559389
8559479
8559569
8559767
8559983
8562899
8564789
8564987
8566697
8566949
8567399
8567939
8567957
8568767
8568839
8568947
8569289
8569469
8569559
8569577
8569793
8569937
8569991
8570999
8572799
8573987
8574689
8574887
8574959
8574977
8576597
8576669
8576759
8576849
8576957
8577677
8577893
8577929
8577983
8578397
8578667
8578883
8578919
8578991
8579297
8579639
8579873
8579891
8579927
8579981
8580899
8581799
8582969
8583599
8583779
8583977
8584679
8584787
8584859
8584967
8585399
8585669
8586497
8586587
8587289
8587577
8587757
8587937
8588189
8588549
8588819
8588837
8589179
8589359
8589629
8589683
8589773
8589953
8590889
8590997
8592977
8594687
8594777
8595749
8595857
8595893
8595947
8596199
8596397
8596649
8596667
8596739
8596793
8596829
8597297
8597639
8597783
8597873
8598179
8598197
8598593
8598647
8598809
8598917
8599169
8599439
8599583
8599673
8599691
8599817
8599961
8606999
8608799
8608889
8609879
8609987
8616989
8617799
8618699
8618789
8618879
8619797
8619869
8624999
8627699
8627897
8627987
8628779
8629679
8629949
8636987
8637779
8637869
8638697
8638967
8639597
8639849
8644799
8645789
8646779
8647589
8647697
8647949
8647967
8648687
8648867
8649299
8649479
8649677
8649857
8649929
8651999
8653889
8654897
8655869
8656499
8656589
8656787
8657687
8657849
8658569
8658659
8658677
8658893
8658983
8659289
8659559
8659667
8659793
8661899
8662799
8662889
8663969
8663987
8664869
8664959
8664977
8665499
8665949
8665967
8666597
8666849
8666939
8666993
8667299
8667497
8667677
8667929
8668379
8668577
8668739
8668973
8669189
8669279
8669477
8669657
8669963
8669981
8670989
8671979
8672789
8672897
8672969
8674499
8674769
8674859
8675399
8676587
8676659
8676893
8677289
8677397
8677577
8677829
8677847
8677883
8678639
8678693
8678783
8678927
8678963
8679179
8679449
8679557
8679791
8679953
8679971
8681789
8681969
8682887
8682959
8683769
8683877
8684597
8684759
8684939
8685569
8685659
8685749
8685767
8685857
8685893
8686397
8686487
8686829
8686883
8687369
8687387
8687477
8687729
8687873
8687891
8687963
8687981
8688287
8688557
8688593
8688629
8688791
8688809
8688863
8689097
8689169
8689259
8689349
8689493
8689529
8689673
8689727
8689817
8689853
8689943
8690789
8691689
8692499
8692589
8692877
8693687
8693759
8693957
8694479
8694767
8694839
8694857
8694947
8695199
8695667
8695937
8695991
8696189
8696459
8696693
8696837
8697089
8697539
8697683
8697791
8697809
8697971
8698097
8698187
8698457
8698493
8698673
8698727
8698763
8698871
8698961
8699069
8699519
8699573
8699753
8699771
8699807
8705999
8707997
8708969
8709959
8715989
8716889
8716997
8717987
8718779
8718797
8718869
8718887
8725799
8725979
8726699
8726789
8726969
8726987
8727599
8727689
8727779
8728679
8728787
8729849
8729867
8729939
8733899
8735789
8735879
8735897
8737697
8738399
8738579
8738759
8738957
8739299
8739389
8739749
8739767
8743997
8744969
8746679
8746697
8746949
8746967
8747489
8747579
8747759
8747777
8747957
8748587
8748767
8748893
8749199
8749469
8749847
8749991
8753879
8754869
8754959
8755499
8756669
8756687
8756939
8757389
8757569
8757659
8757857
8757893
8758199
8758289
8758577
8758793
8758847
8759279
8759459
8759657
8759693
8759819
8759837
8761889
8761997
8763977
8764499
8764589
8764787
8764859
8765579
8765597
8765849
8765957
8765993
8766587
8766929
8767289
8767397
8767559
8767757
8767883
8767919
8768387
8768477
8768657
8768693
8768729
8768891
8768909
8769287
8769737
8769809
8771897
8771969
8772977
8773697
8773859
8774399
8774489
8774939
8774993
8775659
8775677
8775749
8775947
8776577
8776667
8776739
8776919
8776991
8777189
8777693
8777819
8777837
8778269
8778359
8778467
8778557
8778593
8778629
8778719
8778881
8779493
8779853
8779907
8779943
8779961
8780699
8780879
8781599
8781797
8781869
8782589
8782877
8782967
8783399
8783669
8783759
8784497
8784929
8784983
8785199
8785397
8785649
8785883
8785937
8786369
8786639
8786927
8786963
8787089
8787269
8787287
8787629
8787683
8787773
8787809
8787917
8787971
8788079
8788187
8788673
8788907
8789393
8789447
8789483
8789537
8789681
8789843
8790599
8790689
8791697
8791787
8792669
8792957
8793479
8793749
8793839
8793857
8794469
8794757
8795099
8795387
8795747
8796197
8796287
8796629
8796647
8796863
8796881
8797079
8797169
8797457
8797673
8797709
8797781
8797853
8797871
8797907
8797961
8798087
8798357
8798393
8798483
8798771
8799239
8799491
8799509
8799617
8799671
8799851
8799941
8807879
8807969
8807987
8809499
8809769
8809877
8809949
8809967
8815799
8815889
8816789
8816987
8817689
8817779
8817959
8824979
8824997
8825897
8825969
8826959
8826977
8827769
8827877
8827967
8828669
8828777
8828993
8829479
8829767
8829839
8829857
8829983
8833889
8834699
8834789
8835689
8835797
8836859
8837597
8837993
8838299
8838569
8838677
8839667
8839739
8839757
8839829
8840999
8843699
8843789
8844779
8845589
8846399
8846759
8847389
8847569
8847659
8848199
8848379
8848487
8848577
8848667
8848739
8848937
8849189
8849297
8849387
8849567
8849747
8849783
8849837
8851889
8853797
8854679
8854697
8854949
8855597
8855669
8855687
8855867
8855939
8856569
8856767
8856929
8857379
8857487
8857649
8857757
8857883
8857973
8858783
8859089
8859197
8859467
8859827
8859863
8859953
8860889
8861987
8862977
8863499
8863697
8863787
8863949
8864399
8864759
8864993
8865299
8865497
8865749
8865929
8866397
8866577
8866667
8866829
8866919
8867099
8867189
8867279
8867459
8867549
8867657
8867909
8868089
8868359
8868647
8868719
8868737
8868971
8869169
8869187
8869277
8869349
8869547
8869673
8869727
8869781
8870879
8870987
8871869
8871887
8872679
8872697
8872967
8873489
8873597
8873687
8873849
8873939
8874497
8874659
8875379
8875469
8875487
8875667
8875739
8875829
8875973
8876099
8876297
8876657
8876729
8876927
8877593
8877629
8877647
8877719
8877809
8877881
8878277
8878349
8878637
8878691
8879069
8879159
8879177
8879267
8879393
8879447
8879537
8879681
8879753
8879807
8879861
8880689
8880797
8880959
8881589
8881787
8882579
8882777
8883389
8883569
8883587
8883767
8884649
8885783
8885837
8886089
8886287
8886467
8886539
8886629
8886827
8887169
8887259
8887367
8887493
8887547
8887691
8887727
8887817
8887871
8887961
8888339
8888357
8888609
8888753
8888771
8888861
8888933
8888951
8889149
8889329
8889527
8889563
8889581
8889833
8889851
8889941
8890589
8891579
8892497
8892677
8892749
8892857
8893289
8893487
8893649
8893793
8893883
8894189
8894279
8894477
8894657
8894729
8894783
8894819
8894981
8895179
8895197
8895683
8895827
8895881
8896259
8896619
8896673
8896691
8896709
8896781
8897249
8897267
8897591
8897627
8897771
8897951
8898059
8898077
8898257
8898419
8898653
8898671
8898761
8898941
8899067
8899157
8899193
8899463
8899481
8899571
8904899
8904989
8905997
8906789
8906897
8906969
8908589
8908769
8908877
8909759
8909867
8912999
8914799
8915897
8916599
8916689
8916779
8916977
8917679
8917697
8917949
8918597
8918849
8918939
8919299
8919389
8919497
8919767
8919839
8919857
8919893
8919983
8924879
8924969
8924987
8925599
8925797
8925887
8925977
8926859
8927489
8927579
8927687
8927957
8928389
8928749
8928767
8928929
8929289
8929667
8929919
8929937
8933699
8934869
8936399
8936777
8937569
8937587
8937857
8937893
8937947
8937983
8938469
8938577
8938667
8938739
8939369
8939549
8939891
8939963
8943689
8943797
8944679
8945579
8945669
8945759
8945939
8946659
8946767
8946857
8946893
8947469
8947487
8947577
8947973
8948099
8948279
8948369
8948549
8948837
8949377
8949557
8949791
8950889
8951699
8951879
8951897
8952689
8952869
8952959
8953499
8953697
8953859
8954849
8954867
8955299
8955389
8955587
8955839
8955893
8955929
8956397
8956487
8956559
8956757
8957567
8957693
8958449
8958647
8958683
8958809
8958863
8958953
8959169
8959367
8959529
8959763
8960789
8961779
8961959
8962697
8963579
8963849
8963939
8963957
8963993
8964299
8964479
8964497
8964569
8964587
8964677
8964929
8964947
8965289
8965487
8965559
8965829
8965991
8966369
8966387
8966567
8966693
8966729
8966873
8966891
8966927
8966963
8967269
8967377
8967557
8967593
8967719
8967737
8967809
8968187
8968439
8968637
8968727
8968871
8968907
8968943
8969087
8969393
8969483
8969663
8969717
8969771
8970887
8970959
8971499
8972489
8972669
8972849
8972993
8973389
8973659
8973857
8974829
8974937
8975189
8975459
8975639
8975693
8975783
8975963
8976179
8976197
8976287
8976449
8976467
8976719
8976881
8976971
8977097
8977277
8977439
8977673
8977763
8977961
8978069
8978573
8978663
8978807
8979059
8979149
8979293
8979329
8979617
8979653
8979671
8979923
8980589
8980859
8981597
8981867
8981939
8981957
8982893
8982929
8982947
8983199
8983577
8983847
8983883
8983937
8983991
8984369
8984477
8984783
8984981
8985269
8985467
8985593
8985719
8985773
8985863
8985881
8985953
8986277
8986457
8986547
8986673
8987357
8987483
8987519
8987591
8987609
8987753
8987807
8987933
8988149
8988437
8988509
8988761
8989139
8989229
8989517
8989553
8989571
8989661
8989733
8990669
8990687
8990777
8990939
8991299
8991839
8991893
8992199
8992397
8992937
8993297
8993693
8993891
8993909
8993927
8993981
8994197
8994593
8994647
8995079
8995097
8995187
8995529
8995583
8995619
8995709
8995871
8996087
8996357
8996573
8996609
8996627
8996681
8996717
8996843
8997059
8997167
8997239
8997293
8997671
8997941
8998139
8998247
8998373
8998391
8998427
8998553
8998607
8998643
8998823
8999183
8999219
8999327
8999381
8999651
8999741
8999813
9047999
9048989
9057899
9057989
9058979
9059969
9067889
9068879
9068897
9068987
9069869
9076799
9078869
9078887
9079769
9079859
9084899
9084989
9086699
9086879
9086897
9087797
9088589
9088679
9088697
9088787
9088967
9089687
9092999
9094889
9094979
9096977
9097589
9097769
9099479
9099659
9099767
9099929
9147899
9155999
9156989
9158789
9159599
9159869
9159977
9167699
9168689
9169499
9169679
9169877
9169967
9174899
9175979
9176969
9177599
9177869
9178769
9178787
9179579
9179867
9179957
9183899
9183989
9185699
9186599
9186797
9186869
9187499
9187679
9187967
9189497
9189767
9189893
9193979
9194789
9194897
9195779
9196679
9196697
9196877
9197579
9197777
9197849
9198569
9198587
9198659
9198677
9198767
9199469
9199559
9199649
9199739
9199919
9199937
9199991
9209999
9228899
9229799
9229889
9238799
9239987
9246899
9248699
9248879
9249689
9249797
9249959
9255899
9255989
9256799
9257879
9258869
9258959
9259499
9259589
9263999
9265889
9265979
9266897
9266987
9267887
9267959
9268877
9268949
9269489
9269849
9269867
9274997
9275879
9276689
9276977
9277769
9277859
9277967
9278597
9278849
9278993
9279587
9279659
9279749
9279983
9281999
9284789
9284879
9284987
9285797
9285959
9285977
9286499
9286859
9287489
9287849
9287939
9288479
9288659
9288677
9288767
9288857
9288893
9289199
9289487
9289757
9289793
9289829
9289919
9289937
9289991
9290999
9292979
9293789
9293969
9294689
9294959
9295589
9295679
9296489
9296579
9296759
9296867
9297569
9297677
9297983
9298397
9298649
9298829
9298973
9299369
9299387
9299657
9299747
9299819
9299837
9299891
9299909
9318899
9318989
9319889
9319979
9328997
9329987
9336989
9338699
9338969
9339689
9339977
9345899
9345989
9346979
9347879
9347969
9349589
9349679
9349787
9349859
9355979
9357779
9358589
9358787
9358859
9358949
9359579
9359759
9364889
9364997
9365897
9367499
9367769
9367949
9368399
9368687
9368759
9369677
9373799
9374789
9374987
9375887
9376769
9377939
9377993
9378587
9378659
9378749
9378839
9378893
9378983
9379199
9379379
9379793
9379829
9379973
9379991
9381899
9382889
9383789
9383987
9384797
9385949
9385967
9386579
9386849
9386957
9387569
9387857
9388397
9388487
9388559
9388667
9388829
9388919
9389099
9389189
9389279
9389297
9389459
9389927
9391979
9393779
9393977
9394499
9394859
9394967
9395489
9396479
9396929
9397469
9397559
9397649
9397757
9397847
9397937
9398567
9398657
9398729
9398783
9399287
9399449
9399773
9399809
9419699
9419897
9419987
9426899
9427889
9427997
9428879
9429869
9429887
9436979
9437969
9438977
9439679
9445889
9446897
9447887
9448589
9448679
9448877
9449597
9449939
9454979
9454997
9455969
9456779
9456869
9456959
9456977
9457859
9458777
9458849
9459299
9459389
9459677
9459767
9459839
9459893
9462899
9462989
9463997
9464879
9466949
9467399
9467687
9467957
9468749
9468839
9468947
9469829
9469883
9469919
9469937
9469991
9472979
9473897
9473987
9474599
9474779
9475787
9476399
9476849
9477569
9477749
9477893
9477947
9478487
9478559
9478793
9478883
9478991
9479567
9479783
9479819
9479891
9481799
9481889
9482699
9482897
9482987
9483959
9485687
9486497
9486677
9487397
9487739
9487991
9488189
9488639
9488693
9488819
9488837
9488891
9488981
9489539
9489719
9489773
9489827
9489881
9489917
9490889
9491789
9491897
9491969
9491987
9492779
9492797
9493499
9493877
9493949
9494399
9494669
9494777
9494867
9494939
9494957
9495587
9496559
9496649
9497099
9497387
9497693
9497783
9497837
9498179
9498197
9498539
9498647
9498719
9498773
9498953
9499079
9499097
9499187
9499439
9499619
9499673
9499691
9499817
9499961
9508979
9508997
9509789
9509897
9515999
9516989
9517799
9517889
9517979
9518969
9519869
9526799
9526997
9527879
9528689
9528797
9529769
9529787
9529967
9534989
9535979
9536897
9537797
9537887
9537977
9538499
9538679
9538877
9539399
9539867
9539939
9539993
9544889
9544979
9545969
9546599
9546689
9546869
9546959
9547679
9547787
9547877
9547949
9548579
9548597
9548687
9548993
9549299
9549389
9549479
9549587
9549677
9549893
9549983
9552989
9553997
9554879
9555599
9555779
9555797
9555869
9556787
9557777
9557957
9557993
9558587
9558749
9559289
9559379
9559397
9559469
9559577
9559883
9561989
9563789
9564869
9565697
9565859
9565877
9565967
9566399
9566759
9566849
9566867
9566939
9566993
9567587
9567749
9568379
9568397
9568469
9568577
9568649
9568847
9568973
9569459
9569783
9569837
9569891
9570989
9571889
9571997
9574589
9574679
9574787
9574949
9575939
9575957
9576299
9576857
9576929
9577199
9577289
9577397
9577739
9577847
9577973
9578477
9578963
9579377
9579539
9579719
9579809
9579827
9579881
9579953
9580889
9581699
9582887
9582977
9583859
9583877
9584579
9584669
9584777
9584849
9584867
9585767
9585893
9585929
9586649
9586847
9586937
9587387
9587657
9587693
9587729
9587783
9587873
9588197
9588737
9588791
9589259
9589529
9589583
9589673
9589709
9589961
9590699
9590879
9590897
9591977
9592697
9593579
9593777
9593957
9594479
9594659
9594857
9594929
9594947
9594983
9595199
9595559
9595793
9596099
9596189
9596297
9596549
9596837
9596927
9596963
9596981
9597089
9597179
9597359
9597377
9597449
9597593
9597719
9597737
9597953
9597971
9598079
9598187
9598349
9598529
9598637
9598691
9598709
9598943
9599069
9599159
9599267
9599393
9599483
9599537
9599771
9599861
9606899
9608969
9608987
9609959
9615989
9617789
9617897
9617987
9619499
9619679
9619787
9619877
9624899
9625997
9626699
9626789
9627599
9627977
9629489
9629579
9629687
9629759
9629777
9629849
9629993
9633989
9634979
9634997
9636689
9636797
9637697
9637949
9637967
9638597
9638957
9639389
9639677
9639947
9641999
9642989
9644879
9644897
9645959
9647399
9647489
9647579
9647597
9647777
9647849
9648659
9648839
9648857
9648893
9649379
9649559
9649667
9649793
9649847
9649919
9649973
9653789
9654797
9654959
9654977
9655589
9655697
9655769
9655859
9655967
9656489
9656939
9657497
9657569
9657749
9657839
9658469
9658487
9658559
9659099
9659297
9659387
9659549
9659729
9659891
9659963
9659981
9661889
9661979
9662699
9663779
9663869
9663977
9664679
9664877
9665939
9665993
9666479
9666929
9667379
9667487
9667667
9667739
9667793
9667919
9667937
9668279
9668297
9668369
9668387
9668639
9668783
9668819
9668873
9668909
9669197
9669287
9669377
9669593
9669773
9669953
9672869
9673949
9673967
9674579
9674669
9674849
9674939
9675569
9675767
9675857
9675947
9675983
9676829
9676847
9676937
9677477
9677567
9677729
9677819
9677873
9677891
9678197
9678269
9678629
9678737
9678863
9678971
9679169
9679277
9679349
9679367
9679457
9679673
9679853
9679871
9680789
9680969
9680987
9681797
9681977
9682499
9682859
9683579
9683777
9684659
9684749
9684839
9684947
9685667
9685757
9685847
9686189
9686279
9686819
9686837
9687089
9687449
9687539
9687647
9687719
9687791
9687809
9688097
9688169
9688187
9688619
9688781
9688817
9688907
9688961
9689177
9689249
9689357
9689447
9689483
9689591
9689681
9689717
9691589
9691679
9691697
9692399
9692939
9692993
9693389
9693659
9693839
9693947
9694469
9694577
9694667
9694739
9694793
9694973
9694991
9695099
9695459
9695549
9695747
9695891
9696287
9696359
9696719
9696773
9697439
9697691
9697817
9697907
9698069
9698357
9698393
9698519
9698537
9698627
9698861
9699149
9699509
9699563
9699653
9699923
9699941
9705989
9706799
9706889
9706979
9707699
9707987
9708869
9708977
9709859
9715799
9716789
9716969
9717599
9717689
9717959
9717977
9719579
9719867
9725879
9726779
9726797
9727787
9728489
9728597
9728759
9728867
9729479
9729497
9729677
9729857
9729947
9729983
9735797
9736499
9736589
9736787
9737669
9737687
9738299
9738389
9738497
9738767
9738893
9738947
9739559
9739937
9741899
9743897
9744599
9744797
9744869
9745877
9745949
9746489
9746579
9746777
9747497
9747587
9747677
9747839
9748199
9748469
9748559
9748883
9749099
9749189
9749693
9749819
9749963
9751799
9752789
9752969
9752987
9754859
9755777
9755849
9756569
9756587
9757199
9757289
9757379
9757487
9757667
9757739
9757757
9757793
9757829
9757991
9758387
9758477
9758729
9758747
9758783
9758927
9759359
9759467
9759539
9759593
9759809
9759917
9760979
9761987
9764399
9764687
9764759
9764849
9764939
9764957
9765389
9765893
9766667
9766739
9766793
9766847
9766937
9767369
9767567
9767657
9767783
9767873
9767909
9768089
9768449
9768683
9768719
9768881
9768917
9768971
9769493
9769547
9769637
9769709
9769817
9771599
9771689
9771977
9772589
9772877
9773993
9774299
9774389
9774497
9774767
9774857
9774893
9774929
9775379
9775559
9775793
9775847
9776369
9776387
9776549
9776639
9776693
9776729
9776783
9776891
9776981
9777179
9777773
9777791
9778187
9778259
9778763
9778817
9778943
9779069
9779087
9779339
9779537
9779843
9779933
9780599
9780887
9781589
9781697
9782579
9782957
9783479
9783497
9783659
9783677
9783929
9784559
9784667
9784757
9784991
9785297
9785837
9786089
9786269
9786719
9786737
9786827
9786863
9787493
9787709
9787727
9787871
9788069
9788357
9788393
9788717
9788951
9789257
9789293
9789383
9789419
9789473
9789491
9789833
9789851
9790499
9790679
9790967
9791597
9791687
9791777
9792479
9792659
9792677
9792767
9792857
9792947
9792983
9793397
9793559
9793577
9793757
9793829
9793991
9794639
9794891
9795557
9795629
9795683
9795809
9795827
9795917
9796277
9796439
9796529
9796637
9796691
9797069
9797159
9797339
9797357
9797429
9797771
9797807
9797861
9798059
9798149
9798293
9798329
9798563
9798617
9798707
9798743
9798941
9799067
9799319
9799337
9799373
9799409
9799481
9799607
9799661
9799733
9799913
9803999
9805997
9806789
9806969
9807599
9807689
9807779
9807797
9809489
9809759
9809777
9814979
9815789
9815879
9816797
9816959
9817949
9818399
9818597
9818867
9819857
9819947
9824879
9824897
9824987
9826499
9826769
9826877
9827399
9827669
9827777
9828677
9829739
9829793
9829829
9834599
9834689
9834977
9835499
9835589
9836399
9836759
9836777
9836993
9837389
9837587
9837749
9837857
9838379
9838397
9838487
9838919
9838991
9839099
9839189
9839783
9839909
9840899
9840989
9842879
9843599
9843797
9843959
9845489
9845687
9845777
9845939
9846497
9846659
9846677
9846839
9846857
9847379
9847577
9847793
9847829
9847847
9847991
9848369
9848459
9848747
9849197
9849449
9849629
9849683
9849863
9850889
9851987
9853769
9853967
9854399
9854759
9854777
9855497
9855929
9856487
9856559
9856577
9856757
9856829
9856883
9856919
9857279
9857369
9857387
9857459
9857657
9857693
9857891
9857927
9857963
9858089
9858197
9858269
9858449
9858593
9858683
9858791
9858809
9858971
9859277
9859547
9859637
9859673
9859691
9859781
9860789
9860897
9860987
9862679
9862877
9862949
9863669
9863759
9863939
9864497
9864749
9864839
9864983
9865577
9865937
9866693
9866729
9866819
9866891
9866981
9867359
9867449
9867467
9867971
9868169
9868367
9868853
9869087
9869267
9869339
9869393
9869609
9869627
9869663
9869681
9870797
9870977
9871877
9871949
9872399
9872579
9872939
9873299
9873389
9873569
9873767
9873839
9873893
9873947
9874577
9874793
9874847
9874937
9875549
9875693
9875729
9875783
9875927
9875981
9876359
9876593
9876719
9876809
9877529
9877583
9877619
9877709
9877727
9877961
9878069
9878177
9878249
9878483
9878861
9879059
9879239
9879257
9879473
9881687
9882659
9882767
9882839
9882947
9883469
9883487
9883883
9884279
9884297
9884747
9884783
9884891
9884909
9885089
9885287
9885539
9885593
9885647
9885737
9885773
9886169
9886277
9886493
9886529
9886637
9886691
9886817
9886853
9886871
9887069
9887159
9887393
9887573
9887609
9887663
9887681
9888149
9888239
9888563
9888761
9889067
9889193
9889283
9889409
9889463
9889553
9890579
9890597
9890669
9892577
9892667
9893189
9893693
9893747
9894179
9894377
9894449
9894557
9894593
9894791
9894809
9894827
9894971
9895079
9895097
9895187
9895367
9895493
9895763
9895817
9895943
9895961
9896267
9896357
9896429
9896591
9896681
9896717
9896753
9896807
9896951
9897059
9897257
9897473
9897581
9897617
9897653
9897743
9897761
9897941
9898139
9898157
9898283
9898319
9898337
9898481
9898571
9898841
9899147
9899273
9899291
9899363
9899651
9899921
9903989
9904889
9905879
9906599
9906779
9907679
9907697
9907769
9908867
9908939
9908957
9909749
9909857
9912899
9913889
9913979
9913997
9914969
9914987
9915887
9916589
9916679
9916787
9917399
9917597
9917759
9917849
9917939
9918983
9919199
9919379
9919487
9919667
9919829
9919883
9919937
9923789
9923897
9923987
9924689
9924779
9924797
9925589
9926489
9926597
9926669
9927299
9927497
9927767
9927893
9928379
9928397
9928487
9928577
9928739
9928937
9929099
9929189
9929369
9929459
9929567
9929693
9929729
9929873
9929891
9929981
9932789
9932969
9933887
9933977
9934499
9934697
9934877
9935399
9935579
9935867
9936893
9937199
9937649
9937973
9938297
9938549
9938927
9939089
9939269
9939359
9939539
9939557
9939647
9939737
9939773
9939971
9941699
9941879
9941969
9942689
9942797
9943679
9943877
9943949
9944849
9944939
9945587
9945983
9946199
9946487
9946829
9946847
9946883
9946919
9946973
9946991
9947369
9947837
9948287
9948359
9948557
9948593
9948881
9948971
9949169
9949259
9949439
9949619
9949943
9950879
9951869
9952589
9952949
9952967
9953399
9953579
9954479
9954587
9954983
9955199
9955289
9955397
9955559
9955577
9955739
9955937
9956189
9956279
9956369
9956459
9956477
9956729
9956819
9956873
9956909
9956963
9957089
9957683
9957737
9957863
9958259
9958457
9958691
9958709
9958763
9958853
9958961
9959393
9959447
9959753
9959861
9960779
9960869
9962489
9962597
9962759
9962957
9963299
9963497
9963587
9963749
9963839
9963929
9964469
9964667
9964793
9964847
9964883
9964937
9965369
9965729
9965783
9965819
9966269
9966449
9966629
9966791
9966863
9967079
9967169
9967187
9967259
9967277
9967367
9967439
9967673
9967691
9967781
9968537
9968573
9968627
9968771
9968843
9968951
9969059
9969329
9969527
9969581
9969653
9969923
9970589
9970679
9970787
9970859
9971597
9971957
9971993
9972497
9972569
9973199
9973793
9973919
9974099
9974369
9974747
9974837
9975197
9975359
9975593
9975683
9975737
9975773
9975827
9975863
9976097
9976259
9976529
9976619
9976763
9976853
9977069
9977339
9977447
9977483
9977519
9977609
9977951
9978347
9978383
9978653
9978833
9979283
9979337
9979553
9979643
9980777
9981929
9982649
9982829
9982883
9983387
9983549
9983639
9983837
9984089
9984179
9984647
9984683
9984791
9984827
9984881
9985169
9985187
9985259
9985637
9985709
9985763
9985853
9985961
9986069
9986573
9986591
9986861
9987617
9987671
9987851
9987941
9988157
9988229
9988283
9988373
9988481
9988553
9988607
9988733
9989039
9989237
9989327
9989381
9989417
9989723
9989813
9989921
9990389
9990569
9990677
9990767
9990857
9991199
9991379
9991469
9991559
9991649
9991757
9991847
9991973
9992639
9992693
9992783
9992891
9992909
9992963
9993089
9993359
9993539
9993629
9993827
9993881
9993917
9994097
9994169
9994349
9994367
9994709
9994727
9994871
9995483
9995519
9995717
9995861
9996059
9996149
9996419
9996491
9996509
9996617
9997049
9997319
9997517
9997643
9997661
9997913
9998129
9998147
9998273
9998309
9998381
9998543
9998561
9998633
9998741
9998903
9999047
9999083
9999317
9999533
9999713
